LAMMPS data file via write_data, version 23 Jun 2022, timestep = 50000

2160 atoms
2 atom types

0.7053140355554284 29.433599344442797 xlo xhi
0.707778865611111 29.536459654387976 ylo yhi
0.8168230113043435 34.08700243869183 zlo zhi

Masses

1 15.9994
2 28.0855

Atoms # charge

288 1 -1.2 5.728890568364938 6.741293316794412 4.211483554963632 1 0 0
567 2 2.4 5.709380971093086 5.586571207604022 2.9757406277398233 1 0 0
1360 2 2.4 3.65938122336552 3.155750906368831 2.5854803562254927 1 0 1
485 1 -1.2 5.045300199918307 6.467693920754508 1.8458882424887224 1 0 0
638 2 2.4 5.3923039569883615 3.279241736440571 6.326156158808352 1 0 0
211 1 -1.2 2.869321535116165 2.388350425715025 3.717737310414108 1 0 0
584 1 -1.2 2.721382989440563 6.433273639997941 6.5799950120210635 0 0 0
729 1 -1.2 4.638050979150747 2.0670738231354813 1.8125474036736038 0 1 1
1632 1 -1.2 4.636318687006536 4.350996921142178 3.0070421155754006 0 1 1
82 1 -1.2 7.171237013632211 5.138661321820109 2.586184173756477 0 0 0
239 1 -1.2 2.4973870810430565 6.381633356739106 2.226590997600084 0 0 0
47 1 -1.2 1.479923488999431 4.323434905362804 6.445040103614815 1 0 0
1065 1 -1.2 4.099883306572482 4.094708314734289 6.504551220632459 1 0 0
1899 2 2.4 1.0012967407826505 6.3091744874750715 2.637306428648745 1 0 1
863 1 -1.2 2.543700822854899 3.6702096982020618 1.4447152101100378 1 1 0
583 1 -1.2 5.847727337482111 2.609434038438523 4.901886340216407 0 0 0
13 2 2.4 6.9446544570128435 1.4507212428391272 4.583803433115488 0 0 0
4 2 2.4 2.3350684437197575 1.1679819058995 4.5704461348432 0 0 0
652 2 2.4 2.822373954618795 4.868719203156946 7.08303686137647 0 0 0
1812 1 -1.2 6.751572040295476 4.1045469726271175 6.7709938671059415 0 0 1
2138 2 2.4 3.5719592906044344 6.684341005779123 1.1143665301203087 1 1 1
1483 1 -1.2 3.094400094024527 1.1621340367717656 6.052634673183063 0 1 0
188 1 -1.2 1.006919902282594 5.56853239084523 4.145736119128497 1 0 0
1163 1 -1.2 0.7875723627956925 1.302006584139849 4.829989005407533 0 0 0
1771 1 -1.2 5.25286272321179 1.9007757385441015 7.13877748488289 0 0 1
1213 2 2.4 1.0360951018689633 3.88758734037143 34.07693000652608 1 0 0
1744 2 2.4 5.014907742397131 29.529546378225408 1.0473206736203227 0 -1 1
91 1 -1.2 7.713988162302431 1.8249385983374795 3.277843656736473 0 0 0
379 1 -1.2 8.11252203154162 1.468617608978711 5.665172884387654 0 1 0
1730 2 2.4 8.572448598157706 5.054469935111686 1.8341392491574524 0 0 1
803 1 -1.2 9.634119636483684 5.7588188697465394 2.9415659765254634 -1 1 0
240 1 -1.2 9.013309415141759 3.492548147907006 1.8655248943901108 0 1 0
891 2 2.4 9.155051349797606 2.338732543015868 2.924616956320676 0 0 0
519 2 2.4 11.591800598933661 3.16422726899036 4.477469910870032 0 0 0
1042 1 -1.2 12.499284846985745 1.8154191837544036 4.265446174328934 0 1 0
1387 1 -1.2 13.488789305772839 5.91391989835122 6.169625968736698 0 0 1
1089 1 -1.2 12.007279886353563 3.727331662504536 5.968205002563493 -1 0 1
1572 1 -1.2 11.843694947057472 4.5230841234273695 3.585935798410998 0 0 1
866 2 2.4 13.25857858317907 4.435922985945674 6.673996369424529 0 0 0
1043 1 -1.2 10.013546143370236 2.995457959619771 4.13413187258787 0 0 1
1207 1 -1.2 10.82095784923647 6.411765306506734 5.1721080006569515 0 1 0
1936 2 2.4 9.795702667084866 6.858345452229721 6.365325136930279 1 0 1
1803 2 2.4 11.04393009205938 5.9477601466641765 3.6068461721333223 0 0 1
1919 1 -1.2 13.971237579953634 5.67572471406301 2.1007638537714706 0 0 1
1471 1 -1.2 11.691332778596175 7.114908402184785 2.6334296016278387 0 0 1
1837 2 2.4 14.158245973256884 7.147246946584674 2.862783448696826 0 0 1
434 2 2.4 13.993205830295823 7.3929370280725895 5.832712971218299 0 0 0
1820 1 -1.2 9.03244705192156 5.599473286058018 6.976427319172085 0 0 1
1241 1 -1.2 10.569186845981076 1.1272336156336107 6.682462658950762 0 1 1
393 1 -1.2 14.486773884158954 3.557573740001425 6.042590500232964 0 1 0
1961 1 -1.2 10.046265280601721 1.199465134429624 2.283770289164406 0 1 1
282 1 -1.2 13.5802178955625 7.6522599479625875 4.304133088412897 1 0 0
532 2 2.4 9.06182564006417 1.5078861384650644 6.949087184698253 0 0 0
279 2 2.4 14.917340035528019 4.821348855016879 1.2187310002663307 0 1 0
1295 1 -1.2 10.493811307983417 7.7702569105480634 7.502654219617935 0 1 0
799 1 -1.2 15.563424031382997 6.634899187888185 3.514525753768584 -1 1 0
1565 1 -1.2 16.699413322045217 4.881115621239101 5.258876390989912 0 1 0
204 1 -1.2 16.242668767665464 4.297771689301395 2.0627131739988207 0 0 0
145 2 2.4 16.043737825376816 3.7829660233759936 6.246911679439042 0 1 0
913 2 2.4 20.268876474684504 3.6792523198522673 3.3181963745588448 0 0 0
1761 1 -1.2 20.974029046775534 4.806890982249025 4.147233572367046 0 0 1
1075 1 -1.2 18.72588940130019 4.010757534038582 2.960384660864535 0 0 0
398 2 2.4 17.42941043349605 3.203629470720307 2.3812346264715316 0 2 0
1374 1 -1.2 20.363968767546044 2.3924919353639647 4.200429826855749 0 0 0
190 1 -1.2 16.86382863035956 2.438618076145362 6.416883632403085 0 1 0
818 2 2.4 16.566592614642985 6.389706098943818 4.729223406727183 0 0 0
1561 2 2.4 21.446108771222463 5.573582569753995 5.484329674002973 0 0 0
486 1 -1.2 16.859449601043092 2.018612167485195 3.244274955268215 0 0 0
588 1 -1.2 17.915100107072075 7.021910444894678 4.335941791005078 0 0 0
1784 1 -1.2 21.08181347729662 3.4990313266698014 1.949685598198518 0 0 1
749 1 -1.2 20.885961909296633 1.6153197692044117 6.592191950371868 0 1 0
184 2 2.4 21.426838256814605 1.521929283116335 5.112462481937343 0 0 0
180 1 -1.2 20.453968897848135 5.338338137465024 6.711495199980926 0 0 0
401 1 -1.2 15.668347474141404 7.262248531176802 5.848329153854011 0 1 0
341 1 -1.2 21.483488583459586 7.086703752054345 5.287800230626305 0 1 0
2012 1 -1.2 19.82396417346577 7.191608249271563 2.4853814869131146 1 0 1
275 1 -1.2 17.568536856791873 7.039682355058942 1.8184651715481976 0 0 0
1189 2 2.4 20.816181540248216 7.126870288290593 1.1868935058001961 0 0 0
132 1 -1.2 21.674997252776098 5.778278341056046 1.1674729288670496 0 0 0
1408 2 2.4 18.415356638049495 7.707073281840167 3.013524682243006 0 0 0
817 2 2.4 22.16495145572711 4.2707892396039036 1.0982986459657031 0 1 0
848 1 -1.2 29.07271786240102 5.078243634587963 1.7135723810629737 -1 1 0
1569 1 -1.2 28.98851668630826 2.550460446397135 1.2351701543587077 0 1 1
577 2 2.4 29.034563493106152 4.82267959128847 5.402862834339907 -1 0 0
1787 1 -1.2 22.91834961443644 4.933346375854012 5.867155117475286 -1 0 1
791 1 -1.2 22.7652772194967 2.43865141594126 5.227456161025655 0 1 0
833 1 -1.2 27.827160257767748 3.920881602600428 4.6765220269189545 -1 1 0
1459 1 -1.2 25.93445677863264 3.260101252256915 2.7476373916960313 0 0 0
1726 1 -1.2 26.22351901746455 6.828486967610764 4.500483649565155 0 1 1
995 1 -1.2 28.143570894956643 5.826431943671805 6.17363183985215 0 0 0
1443 2 2.4 26.917743497431868 6.771866300338827 5.978913668511389 -1 0 1
2140 2 2.4 26.443460570415787 3.2019341343918324 4.303890697226738 0 1 1
697 2 2.4 23.683402762020737 3.5082004096725394 5.954264033554603 0 1 0
192 1 -1.2 25.147866388271154 3.6350487094874286 5.196836594187131 0 1 0
635 1 -1.2 25.58468721737142 6.703256387498357 2.026029454786638 0 0 0
1307 1 -1.2 26.894408120056756 1.727103812544986 4.872269580341443 -1 0 1
63 2 2.4 25.17219904507224 3.55699394182157 1.3726063673478306 0 0 0
900 1 -1.2 23.66906140311192 4.088984269415533 1.6687808270366433 0 0 0
1705 2 2.4 28.14854357893819 1.1939708900779973 5.661854312567836 0 1 0
187 1 -1.2 23.64868457360389 7.347788643180355 3.963138353296678 0 0 0
234 1 -1.2 28.309358959066973 2.225804560920909 6.924207134702041 -1 1 0
516 1 -1.2 25.701835570265743 6.180613020897156 6.850494892747046 -1 0 0
1984 2 2.4 25.171473069140035 7.401464115722607 3.410620237132403 0 0 1
387 2 2.4 28.858450271069486 0.987731686719632 1.3909680910118807 -1 1 0
1783 1 -1.2 24.874577981036683 2.0505635644702833 34.02081881086438 0 0 -1
958 1 -1.2 29.016400952313862 7.811668612616786 2.8335579536890525 -1 0 1
278 2 2.4 2.779013110445968 7.956747914818747 6.147816366665373 1 0 0
1206 1 -1.2 3.9127258564067873 8.340928234966025 5.055634495770558 1 1 0
535 1 -1.2 6.590095001828185 8.931726317829273 5.118559806220264 1 0 0
1504 2 2.4 5.321789053240039 8.296720592446725 4.304062017488633 1 0 1
1978 1 -1.2 1.2432383113552754 8.350440887867759 5.839831154441813 1 0 1
368 1 -1.2 5.3373111479969175 9.25476336492576 3.0448058671499596 -1 1 0
173 1 -1.2 3.3036611523156036 11.78088778273145 4.267744116460602 0 1 0
1420 2 2.4 3.1335970002042597 12.807686664061366 5.495799626961661 1 0 1
1315 1 -1.2 6.262531041203072 14.237542006959458 3.424815618644631 0 -1 1
1456 2 2.4 5.857616103664604 13.396102199512779 6.811367453467604 0 0 1
1526 2 2.4 2.3182857574169926 11.41416800970125 3.021613883976598 0 0 1
2100 1 -1.2 2.9237849396026334 11.101044653339828 1.617592283142797 0 0 1
909 1 -1.2 6.956065628230923 13.086971386978002 5.508980540898077 0 0 0
1040 1 -1.2 6.432170933755502 11.528385775083152 3.409988340433955 0 0 1
752 1 -1.2 1.7299510062629735 12.563822660913969 6.195551806642647 0 1 1
1342 1 -1.2 4.466085446112698 12.946277336030917 6.352003439160478 1 0 0
2107 1 -1.2 1.7196497944940743 12.95428949521748 2.76815399689342 1 0 1
578 2 2.4 7.127816425947124 12.870913591940354 3.9171455969312947 0 0 0
2029 2 2.4 2.4819138274193167 14.412168929785476 3.174673457338694 0 0 1
388 2 2.4 6.144690342810619 10.396484802671123 2.2920772990874037 0 1 0
787 1 -1.2 2.8023684808528713 14.224410500020701 4.700820873208569 1 0 0
767 1 -1.2 1.3830697953664692 10.254355738586057 3.533642496485582 0 1 0
1272 1 -1.2 7.501847638066509 9.649606248246656 1.6941337225273405 1 1 1
716 1 -1.2 3.9719488285865228 14.335391961290636 2.5129241123852037 1 1 0
1604 1 -1.2 5.582927806215167 14.949794489973462 6.990475206302072 0 0 1
759 2 2.4 5.40412171057077 14.988316791303548 2.2779087392293995 1 1 0
1124 1 -1.2 7.861286277203685 9.151469282324005 7.428551252937622 0 1 0
985 2 2.4 7.95543659587007 9.145858464746885 5.7900390058220665 1 0 1
934 1 -1.2 5.328590799858366 11.105432315561433 1.1155317387110983 1 0 1
728 1 -1.2 8.837254246464237 7.857845339668168 5.6276770745154305 0 0 0
2034 1 -1.2 9.54468331975521 8.025602286555904 1.1871570335741348 0 0 1
654 1 -1.2 8.463754376958509 12.94136055276647 2.918701212390611 0 0 0
1389 1 -1.2 14.303184025498705 8.383501263933276 1.8466855251014398 0 1 1
655 1 -1.2 13.615575218476708 8.508999065710416 6.843333873213867 0 0 0
1804 2 2.4 10.983097191301933 8.327067434377877 1.8331205597838673 0 0 1
1304 1 -1.2 8.626640472999393 10.541076099245759 5.443808217041939 0 0 1
1222 1 -1.2 11.924671885411398 11.44174869141133 4.461852838563402 1 0 0
1259 1 -1.2 9.948133844661347 12.751766791884078 5.867410913401253 0 0 0
1828 2 2.4 10.259866114284646 14.324066689632895 5.679105863490271 0 0 1
724 2 2.4 11.483602532842626 11.007451543959942 2.9719533105042135 0 0 1
709 2 2.4 9.507772339359393 11.355523260054031 6.511506892880948 1 0 0
748 2 2.4 9.629307458694063 13.251870818869934 1.8212015250261446 0 0 0
631 1 -1.2 13.854995647441188 13.024334419009056 3.935184913757362 0 0 0
1992 1 -1.2 10.655889035983137 9.635724133540434 2.7532827431105744 1 0 1
1260 1 -1.2 10.905077869409176 12.387698033263819 2.3933930494411166 0 0 0
395 1 -1.2 11.655118592127819 14.22714214464838 4.8494004749801585 0 1 0
130 1 -1.2 12.961035122284766 12.753024975587 6.343628555432533 0 0 0
1629 1 -1.2 12.896651257406234 10.505141423539001 2.2828291749083847 0 0 1
580 2 2.4 12.561963675881273 12.890316262612254 4.845696130352189 0 0 0
530 2 2.4 13.478442477049716 9.58892348751588 1.1093650537089401 0 0 0
1774 1 -1.2 9.658426685783256 14.814066562180455 2.0296015036077506 1 -1 1
1056 1 -1.2 10.61742378304849 10.324657489298334 7.117613917347309 0 0 0
888 1 -1.2 9.307575221109499 15.054511625815344 4.586190292928768 -1 -1 0
212 1 -1.2 21.72253572069409 8.411946133842193 1.1788258839955579 1 0 0
673 2 2.4 15.46309242190108 13.14087443838806 3.765838231692668 0 0 0
1055 1 -1.2 15.810336406415052 14.337229019300509 2.7927205617142876 0 0 0
152 1 -1.2 15.903744114398325 13.607856221102244 5.181067471512338 0 0 0
1100 1 -1.2 15.57892261218322 10.201867098158733 6.729949862032495 0 0 1
742 1 -1.2 16.043610379280228 11.754381321818173 3.093907858997684 0 0 0
1760 1 -1.2 16.28403590705684 9.497529634524886 4.191614176602915 0 0 1
1543 1 -1.2 18.14812074934991 9.346322071225032 2.951728942561552 0 0 1
1960 2 2.4 16.801471752515916 10.297728650965505 2.853653406749023 0 0 1
1465 2 2.4 18.942504134816335 12.260945523138389 5.028875854059246 0 0 0
668 1 -1.2 20.262565530946826 11.390573132707107 4.555734558894288 0 1 1
248 1 -1.2 18.755448468811515 13.22080646699831 3.700599251253053 0 0 0
1470 1 -1.2 17.640569524419234 11.31466695962412 5.2385815630770285 0 0 1
1453 2 2.4 16.8137519189106 9.946830575613678 5.739291804047203 0 0 0
1975 1 -1.2 19.233893584024127 13.03460619378148 6.36459054856364 0 0 1
849 1 -1.2 17.94471417235895 9.349094529218938 6.642678836940516 0 1 0
1873 2 2.4 18.952605585149097 14.283146105399675 2.497848937967413 0 0 1
155 1 -1.2 16.572556427572096 10.117130384957182 1.2091146217690438 0 0 0
386 2 2.4 15.854938796500832 14.148532890791422 6.694791134469319 -1 1 0
1165 2 2.4 21.801768572858013 11.185511113301574 4.583799627265568 -1 0 0
919 1 -1.2 20.436382740907984 14.717348306010356 2.5194498523313626 0 0 0
1578 1 -1.2 18.549204265828056 13.531409199375469 1.1495670151827904 1 0 1
695 1 -1.2 17.359032184331316 14.53466484566266 7.14876382785532 0 0 0
2073 1 -1.2 21.667175809935795 12.202137806357205 0.8628411236084635 0 1 1
226 1 -1.2 22.263464001357843 12.143893659099458 5.746380209922175 0 0 0
1536 1 -1.2 22.226346548142615 9.63096432254301 4.669241441052986 0 0 0
1967 1 -1.2 22.465090711177034 11.755793237839338 3.2389377823650114 -1 0 1
2125 2 2.4 22.685551779572396 8.115118522100552 4.952145814909236 0 1 1
198 1 -1.2 23.43445073243899 8.226389189632652 6.42463257818609 0 1 0
140 1 -1.2 27.445409681467588 8.124489736884126 6.486675032449003 0 0 0
34 1 -1.2 22.8245094280099 14.184090080286493 2.281594126965994 0 0 0
1647 2 2.4 28.756201598107637 9.004562345237982 6.678784588317725 0 0 1
73 2 2.4 22.78422694027711 12.583408276003045 1.9025216723222953 0 0 0
1457 1 -1.2 28.726557726314198 10.59051315980253 6.461872890764835 -1 1 1
613 2 2.4 28.880456211617403 12.134887090457743 6.316840989630006 0 -1 0
966 1 -1.2 28.07383069126036 12.64174825019075 5.0619603814452985 0 0 0
340 2 2.4 28.81376412380628 9.356268444838655 3.194437125536833 0 1 0
629 1 -1.2 26.070470684456374 11.650550858746486 3.7654083444810946 -1 0 0
2061 1 -1.2 27.644604443304743 9.680449241146132 4.284988922314076 -1 0 0
373 2 2.4 26.97806368927703 12.974705239795961 3.8598286211544823 -1 0 0
219 2 2.4 23.180742836849507 13.380071343724856 6.128918621286257 -1 0 0
594 1 -1.2 23.64610202475303 14.252682544633103 4.9141588409 0 0 0
719 1 -1.2 25.41059486861319 8.988106878016687 3.5322780021716964 0 0 0
208 2 2.4 26.126513350745064 10.175233512340235 4.357991514480802 0 0 0
384 1 -1.2 25.52776912921361 10.361771062899457 5.800954295894135 0 1 0
1524 1 -1.2 27.36889970778078 13.259225132241532 2.3244032160827803 -1 0 1
161 1 -1.2 26.141578812608742 14.242030452718579 4.2030810166291825 -1 0 0
706 1 -1.2 28.284956541640824 10.181516465667833 1.9171784363614977 0 0 0
1231 1 -1.2 24.201962962539586 11.959137412292709 1.3415620062201308 -1 0 0
859 1 -1.2 24.54666241132026 12.626902105604106 6.636463170202027 0 0 0
1480 2 2.4 25.07716075357566 11.18014318576009 7.059405096014015 0 0 1
1792 2 2.4 24.83235884313352 15.200884995990444 4.4627661736230575 0 -1 1
270 1 -1.2 1.6375953391662281 15.577933552152858 2.456443545567211 1 0 0
1511 1 -1.2 5.206168601366587 16.563218085694288 2.616135091861909 1 0 0
806 2 2.4 4.840803759068107 17.71732043141036 3.5201167855760978 0 0 0
522 1 -1.2 6.302734547465611 21.44331859676211 3.6686364478565245 1 0 0
228 1 -1.2 6.209538247595863 18.095424218631717 4.244170971225924 0 0 0
1262 2 2.4 3.971713421530031 20.644962354116043 6.398774503867166 0 0 0
1162 1 -1.2 1.5650933388146417 19.53354431172515 3.212646871785898 1 0 0
405 1 -1.2 3.669661987011368 17.285415627034627 4.526068114472656 1 0 0
1794 1 -1.2 4.136550101338068 18.983824648371577 2.8632771669730643 1 -1 1
1892 1 -1.2 3.149717636027292 19.319786758828375 5.975790994138756 0 -1 1
2104 2 2.4 2.7780992679851853 19.423549540081112 2.105397366904007 0 0 1
1433 1 -1.2 2.5573951323330566 20.834283522305956 1.3954982402946077 1 0 1
316 2 2.4 2.937062359428566 17.743390983895026 5.8972846449283525 0 0 0
1292 1 -1.2 1.4822437074181032 17.116237143557797 6.107197544004086 1 0 0
2033 1 -1.2 4.112054365770463 21.56307188739278 5.074315422882017 0 0 1
551 1 -1.2 5.461974346696493 20.548093241596657 7.038398719820731 0 -1 0
22 1 -1.2 6.7614063158841935 20.637358097195566 1.2607264045155024 0 0 0
1398 1 -1.2 3.9426860339072656 17.095207687551532 7.002695721221337 0 0 0
169 2 2.4 7.4451320984895055 20.995389999273343 2.6845611405775704 0 0 0
1529 1 -1.2 1.1218962065431108 21.883121444258347 4.644121606866793 1 0 1
1887 2 2.4 7.774029722786152 18.223786418634027 4.003825399567309 0 0 1
2007 2 2.4 1.0685098251515286 15.830451966484851 0.9361517685111053 1 0 1
553 2 2.4 4.980695451952941 22.24323441610604 3.929317898508915 1 0 0
1098 1 -1.2 4.237463504737827 22.232572846201325 2.4838578522697716 0 0 1
216 1 -1.2 0.7526476544710099 22.18690613332476 7.100996204714695 1 0 0
440 1 -1.2 2.950949163342843 18.364124448926127 0.8629118251198084 0 -1 1
1906 1 -1.2 10.174554714875244 15.14214895851026 7.026893224768449 0 0 1
358 1 -1.2 8.0691140593853 19.614523222934082 3.233064390661751 1 0 0
1867 1 -1.2 8.4361744066472 18.36454293077679 5.52137754346344 0 0 1
1146 1 -1.2 8.29821262523123 16.96350814056213 3.1345847241515443 1 0 0
892 2 2.4 9.48343360761415 15.907596380644248 3.240769738506863 0 0 0
994 1 -1.2 13.208118211839867 17.36748024582463 3.4123822147502407 0 0 1
2102 2 2.4 11.744682251149104 17.91931870360122 3.7714649133172697 0 0 1
66 1 -1.2 10.734332340990937 16.759679523455432 3.5228658869208624 1 0 0
840 1 -1.2 11.954244913185706 18.388681978006534 5.279806337379656 0 0 0
1567 1 -1.2 11.218813004818323 19.088076283766647 2.823412979285961 0 0 1
1455 2 2.4 11.943123831457376 18.921160137547155 6.767098761257227 0 0 1
1393 2 2.4 14.638011780362696 17.822028902157633 4.0178977922884584 0 0 1
118 1 -1.2 10.36222215445806 19.29741667732863 7.0070074169160455 0 0 0
898 1 -1.2 14.673878737881221 17.729414998407453 5.57422800678168 0 0 1
289 2 2.4 11.19214523327186 19.54826606755415 1.212835158498585 0 0 0
1261 2 2.4 8.868177429715287 18.712603042512445 6.983088551630357 0 1 0
1449 1 -1.2 12.393244515017392 20.44775175281464 7.112296435211279 0 0 1
222 1 -1.2 14.715639178415392 19.325545352383703 3.559075078960928 0 0 0
570 1 -1.2 14.849251605768746 22.009100338366792 3.3328627232159422 1 -1 0
1083 2 2.4 11.64721934962678 21.933618565509008 7.414155660126124 -1 0 0
29 1 -1.2 11.905885599758694 20.949730975672285 1.0236796357318454 0 0 0
1351 1 -1.2 8.341229643207905 22.3548058571206 2.8561210680879996 0 -1 0
1252 2 2.4 12.158018622979862 22.5764792067615 0.9564357966699282 0 0 0
1234 1 -1.2 15.111800259356269 15.615272971082085 6.725271615654577 0 0 0
536 1 -1.2 17.99556108753669 15.467600201216026 2.6391756792959145 0 0 0
685 2 2.4 21.95228512077463 15.41951011091906 2.6019137097682634 0 0 0
105 1 -1.2 15.728530027017644 16.892266118918858 3.313600289050195 0 0 0
627 2 2.4 16.388418357740708 15.746324232713903 2.436271445063627 0 0 0
268 2 2.4 15.678449710570069 20.642359675929608 3.581542058784702 0 0 0
1735 1 -1.2 21.160946766862683 20.95512397192358 3.909767078989531 0 -1 1
527 1 -1.2 16.449415992014472 20.798214749593377 5.027068662778058 0 0 0
1743 2 2.4 17.91295326283641 21.06678375223809 5.526860625163037 0 0 1
2081 1 -1.2 20.90327176697233 18.439948355307102 3.606350620596856 0 0 1
182 2 2.4 20.77375191537709 19.831438215345404 2.7690252572457714 0 0 0
244 2 2.4 20.99454502452535 17.31997352893181 4.733766234067113 0 0 0
1172 1 -1.2 18.48628762268036 19.58119163404844 5.84889705121255 -1 0 0
661 2 2.4 18.49674785860975 17.984762877269958 6.192964690002641 0 0 0
1653 1 -1.2 17.00976341628219 17.38969916330169 6.400799711915816 1 0 1
857 1 -1.2 16.691760140980886 20.294818864127343 2.354351092346221 0 1 0
1520 1 -1.2 19.271005824816122 19.881785225875134 2.0848343538750624 0 0 1
1607 1 -1.2 19.399035092452717 17.227782306532916 5.1211941150902245 0 0 1
378 1 -1.2 18.50025501484579 21.86068024459701 4.183468254895002 0 0 -1
26 2 2.4 17.828760699604647 19.8296540103229 1.2971070616271305 0 0 0
1876 2 2.4 15.536127046770536 17.169882042706554 6.889304290342143 0 0 1
643 1 -1.2 21.777551250395636 16.086796112212912 4.08717774471784 0 0 0
939 2 2.4 21.92956233505192 21.432403359053442 5.217511603124331 -1 0 0
1872 1 -1.2 21.883158085870104 16.45079242155159 1.3447875996185834 0 0 1
163 1 -1.2 21.677553806781585 17.855011147459503 6.127247793546316 0 0 0
765 1 -1.2 21.983237525196927 20.317370934117463 6.394459851113987 0 0 0
600 1 -1.2 18.16136148361711 22.096889894487454 6.750706354416077 0 0 0
795 2 2.4 22.219376826531473 18.9653813585554 7.2121211687387685 -1 0 0
1482 1 -1.2 22.1206187149105 19.906839891587644 1.8418513771537188 0 0 1
1638 1 -1.2 16.058919415760077 15.672216051285545 0.8719661425985081 0 0 1
412 2 2.4 29.28246740847148 20.591174291106057 3.8346397760578417 0 0 0
2020 2 2.4 29.102269410879902 16.36142253091709 7.091417011168231 -1 0 1
221 1 -1.2 27.665987975832508 15.979953479058103 6.52458312468852 -1 0 0
1111 1 -1.2 24.7164284937147 16.167238748648003 3.198565984543426 -1 0 0
504 1 -1.2 25.089651563965422 16.14116311827358 5.78743114984495 0 -1 0
439 1 -1.2 28.30233332078485 19.863332865588095 4.85908590521163 -1 -1 0
738 1 -1.2 24.14210896938098 18.34932734963178 2.21558891836003 -1 0 0
977 1 -1.2 26.59001889033735 18.22762589285439 5.789062715592794 0 -1 1
907 1 -1.2 24.355741929287923 20.891360296327544 2.720129524231618 0 0 0
1950 1 -1.2 25.772177761312328 20.572267193957085 4.7746579818576595 -1 0 1
291 2 2.4 26.87685074572421 19.802986641430167 5.581207588965679 -1 0 0
109 2 2.4 24.798222537082257 21.67156911816296 4.0735321991850135 0 0 0
1991 1 -1.2 28.492076768963475 21.198575165370062 2.6361830226945084 0 0 1
587 1 -1.2 26.596743685386578 17.57171481538971 1.8153616863756272 -1 0 0
170 2 2.4 23.74866551858926 19.798225095773276 1.6871111591078534 -1 0 0
1550 2 2.4 25.016356897352775 17.091494993463094 1.8893688465725742 0 0 1
2055 2 2.4 26.26662317746133 16.84979861265433 6.537192443022868 0 0 1
1758 1 -1.2 23.4514396083697 21.712397686359814 4.902823939113103 0 -1 1
779 1 -1.2 26.859396675254988 20.422314516705462 7.056849660887631 0 0 0
1912 2 2.4 27.934930042762605 21.163938953449215 1.191773193784361 0 0 1
1674 1 -1.2 27.82363702628831 19.627847701441265 0.8724503537218009 -1 0 1
1283 1 -1.2 26.495033192459015 21.940788161191204 1.1972650390316117 0 0 0
711 2 2.4 27.611301957633554 18.077153475602852 33.96432374038124 0 0 -1
2146 1 -1.2 28.980996757859568 17.241255035056145 33.992042744846444 0 0 0
2113 2 2.4 4.176742445504159 29.510445304886773 7.197091747866767 0 0 1
1742 2 2.4 3.1214978325490206 22.332902380347093 1.3083865212065215 0 -1 1
2088 1 -1.2 1.4698722097102683 29.08456129196509 1.558331744971066 1 0 0
294 1 -1.2 6.5165415186660764 29.024541753744984 1.2246583428722433 0 0 0
576 1 -1.2 3.963630608577634 28.41953338477892 1.570298864358488 1 -1 0
1105 2 2.4 4.976975324009526 25.402055890951697 3.8605482461842917 0 0 1
2085 1 -1.2 2.7031300180569433 28.65893843776224 3.787207335546437 1 0 1
1289 1 -1.2 5.288824392203325 23.798438574256586 4.141645014452601 1 0 0
2090 2 2.4 2.457073812680995 25.50595341179934 5.675154656862919 0 0 1
800 1 -1.2 1.365103766320703 26.64711813193903 5.986588430867576 0 0 0
607 1 -1.2 3.503416504399342 25.448351994522206 6.9221837872524254 0 -1 0
323 1 -1.2 5.226973236836189 25.63282151495554 2.32605113876615 0 0 0
1773 1 -1.2 3.430543580289659 25.57966086276325 4.425697171587997 0 0 1
290 2 2.4 2.541339607465115 28.007948747153694 2.2232860903684664 0 0 0
149 1 -1.2 5.809822363572226 26.368185024905713 4.859629230901912 0 -1 0
1807 1 -1.2 2.0738612526375553 26.49341319504549 1.9671470047201434 0 -1 1
1257 1 -1.2 1.611150161864842 24.168489027635033 5.569974100210136 0 0 0
2070 1 -1.2 2.35897899213703 23.72400711419626 1.6402750569941764 1 0 1
363 2 2.4 5.911733477275531 27.593115946308245 5.767773970099208 0 0 0
2109 1 -1.2 6.267554227693645 28.843816440821477 4.796161055181802 0 0 1
357 1 -1.2 4.674608259032993 28.15812508375636 6.541809306792185 1 0 0
895 1 -1.2 7.055595665980503 27.597173793028666 6.905478126685444 0 -1 1
2008 2 2.4 1.5704354552306192 25.046661857391026 1.4121054840283103 1 0 1
507 2 2.4 7.353868049118561 23.5207144307345 6.8981814010985705 0 0 0
171 2 2.4 7.550528135546904 27.797609868371772 1.1728526907421881 0 0 0
8 1 -1.2 5.891615592638228 24.280895376290292 6.9808210029734346 0 -1 0
334 1 -1.2 7.925965022369034 22.984364814050743 5.484098645426203 1 0 0
1280 1 -1.2 7.9454406022048465 27.206012289445543 2.575450382344628 1 0 0
1592 1 -1.2 13.188281427609354 29.15703899378858 6.200057463332655 0 0 1
525 1 -1.2 11.098259641015376 22.520670354497426 6.052573708286598 0 0 0
794 2 2.4 13.326283120730652 29.247426529139066 4.572306141738121 -1 0 0
1287 2 2.4 11.881412138504619 29.072779595457494 7.194444070622646 1 0 0
1711 1 -1.2 8.16758235031953 24.917773594752116 3.979095555404744 0 0 0
432 1 -1.2 12.802069744891266 23.02966222264929 2.3931967738064204 0 0 0
1240 2 2.4 8.645735454503548 23.357321336939698 4.0883956384981985 0 0 0
1 2 2.4 13.887979555689856 23.24435430363775 3.592672810512497 0 -1 0
753 1 -1.2 9.079213008202268 25.015844287010673 1.7423884220569332 0 0 0
346 1 -1.2 12.655900858896702 27.839775650461014 3.9588771422978555 0 0 0
823 1 -1.2 12.313163149231476 26.66697094192175 1.7801707804763354 0 0 0
1948 2 2.4 8.879134165973582 25.981492249814313 3.056553082883832 0 0 1
287 1 -1.2 13.141106773557778 23.238591494929793 5.028361476685806 0 0 0
255 2 2.4 11.947088147712154 26.452684856093818 3.3472737383868836 0 0 0
271 1 -1.2 10.214685782778128 23.71893773300181 4.196043590787376 1 0 0
417 1 -1.2 10.286734815999921 26.587699192804454 3.433006134065238 0 0 0
557 1 -1.2 12.198704069850828 25.094658643193288 4.0289888124557525 0 -1 0
674 2 2.4 11.57508459620215 23.95630981172098 5.111934201036097 0 0 0
165 1 -1.2 11.523368810211519 25.006258059057114 6.293668537355918 0 0 0
739 1 -1.2 11.364553548358229 27.585112583953958 7.219002803337261 0 0 0
390 1 -1.2 14.829722910404058 29.36571860711943 4.055938711013615 0 1 0
782 2 2.4 11.77866693560075 26.00989131362279 7.5718341697638065 0 0 0
1205 1 -1.2 14.924449693932878 24.477997034625137 3.365459329198767 0 0 1
663 2 2.4 14.907511950312804 25.950905925684484 7.476007925627062 0 -1 0
1725 1 -1.2 14.94440156910529 24.361215827093186 7.377966039189607 1 0 0
2059 1 -1.2 13.348415672665546 26.206282646760155 7.786422215147427 0 0 0
1193 1 -1.2 19.457465992420747 22.618222919206953 1.6679813150198504 0 0 0
1166 2 2.4 16.358354923420766 29.36695264757618 3.5330525107972655 -1 0 0
407 1 -1.2 15.414715629257325 26.698032673777487 6.249290832505406 0 0 0
1796 1 -1.2 21.19901346429686 22.846430147984325 5.616352829812847 0 -1 1
568 2 2.4 18.783628798269742 23.093054858677803 3.116768828875137 0 -1 0
328 2 2.4 16.113279027449565 24.658774771183886 2.3325988906503845 0 0 0
243 2 2.4 16.765262786139825 27.657556507798667 5.988872518981227 0 0 0
813 1 -1.2 17.044733869922112 28.426299280442635 4.636763441534712 0 0 0
2142 1 -1.2 19.814178652658182 24.027650888012708 3.8857027871465366 0 0 1
1946 2 2.4 20.732382294660486 24.323609157344652 5.173985376460663 0 0 1
144 1 -1.2 20.01952286699235 25.212721672929764 6.260566275038543 0 -1 0
48 1 -1.2 16.637293344475967 28.646034898175184 2.108667811394466 0 -1 0
780 1 -1.2 18.00336643772337 26.75615849015718 6.348948788363231 1 0 0
59 1 -1.2 17.3362864599337 23.698998648547025 2.8258421335435515 0 -1 0
311 1 -1.2 20.643666286941492 28.684965241825473 2.1703336426455815 -1 0 0
164 1 -1.2 16.741556890326667 26.096394870229076 2.1744735119350223 0 0 0
1849 2 2.4 17.211271696568005 27.366191177403905 1.3325619908821391 0 -1 1
633 1 -1.2 21.837153161087482 29.03766105462594 4.403812853490072 0 -1 0
456 1 -1.2 16.67941270052731 28.77151208033871 7.188972143485569 0 -1 0
1081 2 2.4 22.054226198634083 28.54765831538889 2.8935237500541366 -1 -1 1
517 2 2.4 18.920173155371412 25.79516866117175 7.229002594648517 -1 -1 0
1054 1 -1.2 18.842673003464192 27.234907711814508 1.1157180101965167 0 0 1
285 1 -1.2 21.997985110894916 25.19344265733722 4.678408726061063 0 0 0
85 2 2.4 20.167917812411165 28.05666753857099 34.07361275810689 0 0 -1
1002 1 -1.2 15.483963671567603 24.31226179483806 0.9147918725587942 1 0 1
477 1 -1.2 22.501512457186315 26.99615757630258 2.798752872329252 0 -1 0
841 2 2.4 29.377755137321515 22.971560976792954 5.7173657229382036 0 0 0
104 1 -1.2 23.13762066460396 29.36129591054218 2.0638454923522844 0 -1 0
1478 2 2.4 29.195359220225576 27.502683519962368 6.994058691704721 0 0 1
807 2 2.4 24.36854263079432 29.305603462041944 1.0065600533280858 -1 0 0
84 1 -1.2 27.854211752907737 29.332997164077 2.5075637674444895 -1 -1 0
1666 1 -1.2 28.791704880781293 24.786675836840367 1.9187650235367926 -1 0 1
200 1 -1.2 25.558003386018747 23.12243632673423 4.171506614162807 0 0 0
1824 1 -1.2 22.919456813438426 24.29756503087637 2.4529173503788066 -1 -1 1
1521 1 -1.2 25.5467048687204 28.53038220021863 1.8241999929215373 -1 0 0
1444 2 2.4 22.92824718485898 25.617493153342938 3.4600105982994003 0 0 1
1114 1 -1.2 24.397726730132465 25.964293711311985 4.06666395742354 -1 0 1
402 1 -1.2 27.844670775949645 23.37421387380978 5.484403293378329 0 0 0
1625 1 -1.2 25.305766762853327 23.606458513208047 6.706178610044798 -1 0 1
1940 1 -1.2 26.411915764413568 25.50509750337824 5.442404406708228 0 0 1
1490 2 2.4 26.347613705061693 23.906523892368018 5.44866886253174 0 0 0
433 2 2.4 25.453573939614483 26.739988476684676 5.010533845353623 0 -1 0
418 1 -1.2 26.11667790440593 27.944693647088823 4.222479576792958 0 0 0
403 1 -1.2 24.710612326238028 27.405173360109757 6.2116933458327805 0 0 -1
397 2 2.4 26.765821490237645 28.254179880725008 2.8208789818686335 0 0 0
1700 1 -1.2 28.22040685507983 28.47003998635719 6.110149556466087 -1 0 1
1782 1 -1.2 27.387906955972863 26.782523325093866 2.4718638042894536 0 0 1
1462 1 -1.2 26.220600134215278 24.55398580505935 1.5251029673841718 0 0 1
134 2 2.4 27.452734644580648 25.538125236706193 1.5201745506077846 0 -1 0
1251 2 2.4 22.83921244432046 23.935540069291775 0.9020961403427074 -1 0 1
1519 1 -1.2 1.5407697784857826 2.145022674292174 8.64481202114108 1 0 0
658 1 -1.2 2.9332552168476247 4.960066041809507 8.690501136401577 0 1 0
1364 1 -1.2 7.233547237623886 5.839603658259367 11.44666019590832 1 0 1
3 2 2.4 2.919674921524072 4.85481306327484 10.35401158376895 0 0 0
1684 2 2.4 4.783071747508791 2.7383730992939084 11.708298733892503 0 1 0
441 1 -1.2 4.4001834768028525 2.510682062541005 13.202128175413794 0 0 0
428 1 -1.2 1.3523566232748143 4.830032866353088 10.759501929990062 1 1 0
156 1 -1.2 3.749502347463287 3.6419779395954883 10.925214980178321 0 0 0
1941 1 -1.2 6.088321381841304 3.6601046696784856 12.052804336825556 1 0 1
1649 1 -1.2 3.7960060297845084 6.162320463782406 10.877360872801825 1 1 0
969 1 -1.2 5.123771872495104 1.5042027541560021 10.74819380231228 0 0 0
1070 2 2.4 6.729036132790759 4.996257264891682 12.68251336470566 1 0 0
942 1 -1.2 5.486287213215302 5.570455542475811 13.512159839992643 0 0 1
86 2 2.4 4.20788914022628 7.563393446885391 11.509240057031676 0 0 0
981 1 -1.2 7.756675378413671 4.751606014278168 9.066593808825706 0 0 0
414 1 -1.2 7.676197709038443 4.6512854667063595 13.86842481597731 1 1 0
1200 1 -1.2 7.610961264787719 7.350021997109348 9.21202755566128 0 0 0
1254 1 -1.2 2.8346198272878387 5.325922819965873 14.008031964961548 0 0 0
186 1 -1.2 3.504670297769238 7.799820178334543 12.917252202013488 1 0 0
596 1 -1.2 7.760406372973561 1.4720907813713837 10.698624202268627 0 0 0
52 2 2.4 1.2389052105493341 5.247283980454466 14.059294065695019 1 0 0
482 2 2.4 8.121850934938838 4.421962014163941 7.576772148521213 0 0 0
2019 2 2.4 7.966539037221842 6.049605463513258 9.996051085749857 0 1 1
871 1 -1.2 8.980835773801077 3.038540617850719 7.516222972904366 -1 0 0
869 1 -1.2 13.13702144473516 4.6948053188087835 8.227361341586251 0 0 0
1388 1 -1.2 9.554853008264086 5.841523289151166 10.429357790486977 0 0 0
1805 1 -1.2 11.814198437034774 4.608981869423765 10.38019733803294 0 0 0
1932 1 -1.2 13.022948508996413 6.7450277958244405 10.137770037281975 1 0 1
1274 2 2.4 10.43820029253686 4.764474945941593 11.17531333198113 1 1 0
1751 1 -1.2 10.717361981715806 5.331310566890447 12.662314438322815 0 0 0
157 2 2.4 13.173045537045454 5.189189454651353 9.753107890175542 0 0 0
599 1 -1.2 9.622665441045804 3.349399311770846 11.245885420612447 0 0 0
997 2 2.4 9.226282428106817 1.7534703467212773 11.242819494957086 1 0 0
2046 1 -1.2 12.745813802182155 1.6368344292707484 11.259205292337343 0 1 1
777 1 -1.2 14.433092063482416 4.735654879843609 10.629661070331608 0 1 0
595 1 -1.2 13.817349554419776 3.659038869316923 12.81157462169422 0 0 0
1971 2 2.4 13.023692021372156 2.285683938400058 12.68575810146235 0 1 0
245 1 -1.2 14.164977503022744 6.152864846742737 12.82855730821995 0 1 -1
467 1 -1.2 14.00514127846255 1.3572199530530131 13.484881377534034 0 0 -1
1269 1 -1.2 11.673057454995796 2.427170699757774 13.526058888412772 0 1 0
2115 2 2.4 14.735401836157276 4.817105841472685 12.175492704839117 0 1 0
449 1 -1.2 9.1595457423966 1.2153982301409205 12.748977196690346 1 0 0
720 1 -1.2 10.429495272901722 0.9754878865306318 10.477183682321371 1 1 0
33 1 -1.2 9.895902609153776 7.474772841688352 13.978329616522892 0 0 0
1000 2 2.4 10.825804999925161 6.14782703168352 14.062703059381542 0 0 0
1237 2 2.4 17.180911560643555 1.4161046414470042 7.641921982366649 0 0 0
1187 1 -1.2 16.249998398856256 4.403926517294781 7.754949772973978 0 1 0
1186 1 -1.2 18.711942586528327 1.380002289023055 8.013492231903518 0 1 0
956 1 -1.2 18.503671129303996 5.353507551957137 8.373184433305335 0 0 0
722 2 2.4 20.24649102148416 1.8378488666597192 8.04225627304176 -1 0 0
1366 1 -1.2 20.276800593671364 3.45019136415953 8.363244554329821 0 0 0
1996 2 2.4 20.037399430327948 5.03652415088127 8.213269424030988 0 1 1
376 2 2.4 17.009222901774102 5.12527292065924 8.905272421269379 0 1 0
96 1 -1.2 16.163771073742048 6.501970788734215 9.239512427801424 0 0 0
1183 1 -1.2 17.333570532886153 4.251641464955165 10.221452340386453 0 0 0
1492 2 2.4 17.76860315318737 4.5824867036650065 11.70126228845235 0 0 0
1516 2 2.4 17.310197152218887 7.527940708712658 12.400724695313537 0 0 0
531 2 2.4 20.448781005483966 3.1094411449910986 12.606416569758764 0 0 0
2153 1 -1.2 17.963334161969005 6.206259566362458 11.778448489112561 0 1 0
1003 1 -1.2 18.97856270568465 3.7699223318786097 12.26252304677116 1 0 0
1148 1 -1.2 16.277496088476852 4.550424114392909 12.413759575476004 0 1 0
2048 1 -1.2 20.235708457520474 1.5435969646329484 12.047724474066083 0 1 1
1139 1 -1.2 16.3820381766071 1.6933019544071657 8.935591754598246 0 0 0
890 2 2.4 15.621540544412566 1.3248625591045364 13.374515286183696 0 0 0
1265 1 -1.2 21.111322770387225 5.72358448634978 9.171270042768063 0 1 0
2130 1 -1.2 15.929490007497229 1.6743771880694658 11.83867813179457 0 1 1
10 1 -1.2 20.647019180854166 7.377009147390956 12.791742751826996 0 0 0
1983 2 2.4 16.45658461443596 1.165894287104293 10.428074599968287 0 1 1
1412 1 -1.2 16.96108805215181 7.0401420692027115 13.869207772179564 0 0 0
295 1 -1.2 21.785891958858418 3.6775517960012336 11.966869491057505 -1 0 0
1377 1 -1.2 21.20013285695548 0.9723125989800362 9.025185527502996 -1 0 1
766 1 -1.2 18.00144059303285 0.8921757268196834 10.746642255806051 0 1 0
1125 1 -1.2 23.707278107674473 2.9779640300762553 7.458909964398035 0 1 0
252 1 -1.2 29.34716787156263 3.79203115106008 13.685157616871603 0 1 0
352 2 2.4 22.210759165901337 7.102677722095212 12.662936292256939 0 1 0
179 1 -1.2 29.137527396335265 6.406104482934453 13.352966205413065 -1 0 0
1266 1 -1.2 22.581489789959825 6.523823621143182 11.192106781596017 0 1 0
125 1 -1.2 29.080475574659925 6.847956007872906 9.891114340782035 0 0 0
850 1 -1.2 28.78686152265351 1.9186164340010332 12.006330244581571 0 1 0
253 2 2.4 28.78395440411889 2.7114546700287248 8.334431276490307 0 0 0
1061 1 -1.2 28.576091492590056 4.179133691253758 8.89325042163158 0 0 0
1104 1 -1.2 23.216777330144645 2.098614887918342 10.090678940055838 -1 0 0
265 2 2.4 25.34555454999178 5.836318117993096 8.362796341299221 0 0 0
650 2 2.4 28.677984359525986 5.303099280896374 10.088543924922243 -1 0 1
301 2 2.4 22.64409967475025 5.829315936666354 9.788485949085498 0 1 0
763 1 -1.2 26.40188518976918 6.660165957039114 9.231850835197259 0 0 0
1368 1 -1.2 27.377687518586235 4.915939555426397 11.01495239353106 0 0 1
2041 2 2.4 24.308125681835154 3.0898050680456595 9.066035637567115 0 1 1
2075 1 -1.2 25.363819829318082 4.281668456168331 8.671848485260828 0 0 0
528 1 -1.2 25.39581597217941 1.9672383672711922 9.382519975935828 -1 0 0
429 1 -1.2 23.12784500093709 4.3122021617464 9.888365466134509 0 1 0
1078 1 -1.2 24.751512091235128 4.004004315211315 11.574625810369396 0 0 0
1558 1 -1.2 25.87330231838363 5.99445448376757 12.665076478297427 0 1 1
457 2 2.4 23.251774355812753 3.2691128958199704 11.401153610640932 0 0 0
1429 2 2.4 26.184948030744494 4.551382000858215 12.040592796249916 0 0 0
1691 1 -1.2 23.618254940881222 2.14516707108094 12.563805560346061 0 1 0
544 2 2.4 28.21207468359828 2.746823631138646 13.292267025989222 0 0 0
1121 1 -1.2 26.853298295323828 3.462041954454375 12.961851727503928 0 1 -1
881 1 -1.2 23.905173310063297 6.392870483672049 8.93536526411628 0 0 0
1224 1 -1.2 27.855076794454266 1.620048955505125 9.164681146436346 0 1 0
447 2 2.4 24.149894170619817 0.9861578981554102 13.514109436846976 -1 0 0
23 1 -1.2 22.872990066552898 6.174767524000295 13.79513680042413 0 0 0
448 2 2.4 26.506967494826686 0.7908888749893848 9.369760402750597 -1 -1 0
1156 2 2.4 26.0128277751386 7.630586265701388 12.64089228536166 -1 0 0
1312 2 2.4 22.69831446484597 29.438222738449632 9.485975746667643 0 -1 0
1746 1 -1.2 3.228950380772932 8.747011587814521 7.495547684571725 0 0 1
30 1 -1.2 5.689478432239757 8.187942188164154 11.72188435954151 1 -1 0
9 1 -1.2 6.4396312860365486 12.770544933867477 8.153624192974469 0 0 0
437 1 -1.2 3.7537278083591117 8.601291615807188 10.254462514757485 0 0 0
1277 1 -1.2 5.545515535474175 8.698471992216128 8.500566330141044 1 1 0
667 1 -1.2 4.079558800825948 10.841656183354488 9.089845021146699 0 0 0
159 2 2.4 4.0399960296679085 9.252016888057614 8.806443882038092 0 0 0
451 1 -1.2 2.743373230599046 13.087361765594965 9.095794698251655 0 -1 0
1372 2 2.4 6.944072226859064 8.949179697174872 12.241195487060159 0 0 1
1012 2 2.4 3.6012136024084818 12.08050896418256 9.952850425451203 0 0 0
300 1 -1.2 2.5748942670238346 11.445651111242269 11.075435956473093 0 0 0
865 2 2.4 5.7639174043393515 13.97734110778065 11.419067729313824 0 -1 0
1435 1 -1.2 6.522367576350927 10.497983290134181 12.423997083670635 1 0 0
1355 1 -1.2 4.85502417778406 12.930698841602222 10.603231583309407 0 0 0
1610 2 2.4 1.6158586381025815 10.369208665522962 11.80850836045271 0 0 0
5 1 -1.2 6.887875103714497 13.217219358742646 12.294077018036612 0 -1 -1
1409 1 -1.2 7.1409083067526815 10.404020431719312 9.447767896735813 1 0 1
1897 2 2.4 6.72382178447821 11.89608722168404 13.283267155785799 1 0 0
2066 2 2.4 2.2656280306713446 14.617666515545709 8.942980683454802 1 0 1
828 1 -1.2 2.4097746807530456 9.961705154731611 13.126256529078237 0 1 0
579 2 2.4 7.09493528484836 8.815065161941959 8.812085850142516 0 0 0
537 1 -1.2 1.1490724312573488 9.254697626778373 10.82525160584026 1 0 0
1531 1 -1.2 4.552067762708894 14.583085456581957 12.349181854046394 0 0 0
1248 1 -1.2 7.5534532563244765 8.402052502199053 13.64289247892123 0 0 0
771 2 2.4 2.8020161706748286 8.711014256008013 14.074735437080836 1 1 0
146 2 2.4 7.565829096333182 11.900877920259214 8.986658402061659 0 0 0
1118 2 2.4 0.8195258044735354 14.887908852830579 11.748577738281705 1 0 0
2014 1 -1.2 1.4898747098072471 14.844113646396158 10.360554515643825 1 0 1
139 1 -1.2 6.397882845909305 15.228434343553783 10.648078556521847 1 -1 0
852 1 -1.2 1.222665856600371 15.172488324959803 7.810370400861123 1 0 0
776 1 -1.2 5.280117157771488 12.348861503814078 13.834463560827892 0 0 0
1798 1 -1.2 11.033653461847926 8.29604990173719 11.200051595588528 1 0 1
2022 1 -1.2 8.681316048634526 11.83284062999282 7.83158438965957 0 0 1
491 1 -1.2 8.252436988358912 8.751752781466754 11.302176748064829 0 0 0
949 2 2.4 12.496569209227475 8.197315351910571 10.492317567207483 0 0 0
1182 1 -1.2 8.34603781230187 12.626028040840145 10.229529594473878 0 0 0
950 2 2.4 14.356421682167774 9.630826130942983 7.746051931821865 0 0 0
615 2 2.4 13.607412695832302 12.569694605019997 7.776128334825215 0 0 0
1847 1 -1.2 13.657160278054134 10.993804643354526 8.164284173276114 0 0 0
1959 2 2.4 10.78906085028913 9.194402359152694 8.200786006453711 0 0 0
886 1 -1.2 12.13682623088175 8.906747837494212 9.078306217202687 0 -1 1
359 1 -1.2 9.839042051624157 9.624802386910279 9.543864921620331 0 1 0
1220 1 -1.2 9.894864564235768 10.308753325300724 12.356219139777243 1 0 0
232 2 2.4 9.734897132073732 9.255491671583435 11.123327602676685 0 0 0
293 1 -1.2 12.730846015501594 13.199771229371546 8.887913564127818 0 0 0
675 2 2.4 12.37980535346682 13.041080692796532 10.382992935213005 0 0 0
489 1 -1.2 12.916157651504577 11.628569240660116 10.927969343713341 1 0 0
1596 1 -1.2 10.820454805055475 13.259690811159222 10.614218165421487 -1 0 0
2155 1 -1.2 9.620024712221465 12.700599541488724 12.728892659168496 1 1 0
1756 2 2.4 9.33587011097749 13.427425722488428 11.321203146327989 0 0 1
943 1 -1.2 13.336418363092635 9.151342283832879 11.447532117572024 -1 0 0
1426 1 -1.2 13.314549786920937 14.158871137009347 11.118694119258764 0 0 0
940 2 2.4 13.595681968596997 10.646812559049636 11.95536667114954 0 0 0
383 1 -1.2 12.933165263459427 11.159802481454873 13.397349192170156 -1 1 -1
1142 2 2.4 9.704287866791486 11.301971432523136 13.700137716106074 1 0 0
1302 1 -1.2 12.469659403071583 13.815440099330976 13.896802846908251 0 0 0
225 1 -1.2 9.11249242955238 15.048993892799507 11.526868284687058 0 0 0
500 1 -1.2 8.033477805038723 11.517438386210332 14.100802547724856 0 0 0
1027 1 -1.2 15.111743203052315 13.18532731468986 7.70906246648588 0 0 0
1210 1 -1.2 15.149161453935047 10.983149146829346 12.152879594395822 1 0 0
1340 1 -1.2 16.24074240790342 7.960695360066105 11.278158270921605 0 0 1
1825 2 2.4 16.205364181797023 8.027469932964348 9.702274644840289 0 0 1
1624 2 2.4 18.78616914985458 14.055100682541903 7.551397321158393 0 0 1
2160 1 -1.2 15.104683766738471 8.879685508279367 8.954790479314735 1 1 1
1051 1 -1.2 17.686500192017643 8.535898136752017 9.17221899187457 0 0 0
331 1 -1.2 18.41880754089075 8.635332406699385 12.276710708602154 0 1 0
1659 2 2.4 18.473476720183225 9.509485716014957 8.16873423175738 0 1 0
540 1 -1.2 20.08588517739573 9.363172865888131 8.292515073461038 0 0 0
466 1 -1.2 20.609824333149305 9.020227352003989 10.84716094545633 0 0 0
805 2 2.4 20.011475559829744 8.780044256644398 12.302127855533348 0 1 0
1661 1 -1.2 18.328876521608745 10.95090334111846 8.792290116528662 0 0 0
28 2 2.4 16.564169470630738 11.658619986334378 12.358294754027735 0 0 0
1337 1 -1.2 19.80632882789749 12.083143649873506 10.705269309701887 0 0 1
1009 2 2.4 18.389982256558664 12.071552928662433 9.910800617182478 0 0 0
1127 1 -1.2 16.50387671136738 13.172994972069906 12.8311857699243 0 0 0
69 1 -1.2 17.226794019839602 11.832856449179893 10.915973413425954 0 0 0
1050 1 -1.2 18.561512771606957 13.384054314603151 8.990848065767524 0 0 0
714 1 -1.2 20.035988498470935 9.97697571305773 13.354406022896814 1 0 0
2005 2 2.4 21.39409768899015 12.349373338058626 10.525032059130437 1 0 1
1537 2 2.4 21.224282966419445 9.47839128421825 9.412639250161673 0 0 0
509 1 -1.2 17.554760474375684 10.921308847086381 13.333346227958366 0 0 0
45 1 -1.2 21.637477785773214 13.647208355787692 9.60024493017406 1 0 0
1589 1 -1.2 21.766032967318402 10.971150986462261 9.806298744694612 -1 0 0
51 2 2.4 16.652527575062486 14.75966470922341 12.751534139500192 0 0 0
917 1 -1.2 22.030956346260336 12.682708166195752 11.980582472799464 0 -1 0
381 1 -1.2 29.18333712632173 8.827706837749785 8.235303423568805 -1 1 0
1434 1 -1.2 22.534474242611953 14.327743630048419 7.247407810133627 0 0 1
57 1 -1.2 22.45621720841163 14.849701501067175 13.410671422361164 0 0 0
503 1 -1.2 23.887463807103572 10.400220162014119 7.714165649633078 0 0 0
2036 1 -1.2 28.232492937887248 12.802476652568743 7.640735157788414 -1 1 1
834 1 -1.2 25.452805690669138 8.05069305568733 11.184095501988054 0 1 0
1407 2 2.4 22.270552664878583 14.883101643746507 8.724155497131804 0 0 1
815 1 -1.2 22.429773120556487 8.586408164333768 8.905633382314916 -1 0 0
343 1 -1.2 27.568970076653656 8.074346890516049 12.838215899963116 0 0 0
100 2 2.4 26.05094655863632 8.181284563026153 9.783356475649251 -1 0 0
785 1 -1.2 25.13306467940897 8.534046381257404 13.538330835031445 0 0 0
1033 2 2.4 28.97312895943436 8.407954764496079 9.790822181878756 -1 0 0
1882 1 -1.2 28.986440631324648 11.112405840192942 12.274081479773503 -1 0 0
1221 1 -1.2 26.266271871913563 11.397415789184539 8.125859631480608 0 0 0
1159 1 -1.2 22.71408806798402 8.663596327068106 12.925658959165997 -1 0 0
1839 2 2.4 23.674419262544856 8.793292326071487 7.947260964647008 0 0 1
421 2 2.4 22.651654896078565 13.2856385944505 13.400936361466169 0 0 0
166 1 -1.2 25.085874396659424 8.619705479633947 8.63531041923829 -1 0 0
321 1 -1.2 28.79011668067624 13.564091394865379 12.15908746086549 0 0 0
138 1 -1.2 27.47514598672662 8.89367152788097 9.946736780512296 0 0 0
435 2 2.4 28.036098905275928 12.223442376672022 11.789018854650845 -1 0 0
1134 1 -1.2 27.805016391389856 12.185957332372789 10.217535585487582 0 0 0
651 2 2.4 25.080919618846757 12.191783318479983 12.233560966219963 -1 0 0
143 1 -1.2 24.902948159570606 13.087070524966721 10.82809591051639 0 1 0
624 1 -1.2 26.26690761354109 13.88066141404685 8.892226658018357 0 0 0
40 2 2.4 27.204882498813074 12.53230778072059 8.764500818020341 0 -1 0
1508 1 -1.2 24.414896415418113 10.762513114440656 12.41633254541847 -1 0 1
436 2 2.4 23.947766716683475 9.562425449960708 13.434017435185877 -1 -1 0
619 1 -1.2 26.62454071674538 12.074771534973044 12.457840092584917 0 0 0
267 2 2.4 25.11011610271221 14.44754375007632 9.923613450449205 0 0 0
539 1 -1.2 24.20859862308182 13.049380859969878 13.285146457552338 0 0 0
1481 1 -1.2 23.736942887410677 14.941246725900564 9.370633586422018 0 0 1
153 1 -1.2 3.06699032636999 21.266106820480793 7.560501326200439 0 0 0
922 1 -1.2 7.831789524905901 19.671035099430625 7.713315131669439 1 -1 0
1158 1 -1.2 2.000449665440006 15.187909068525785 12.86532715616421 0 0 0
1918 1 -1.2 3.702329744523431 15.372528635844189 8.73473796715191 0 0 1
230 2 2.4 4.813466255478669 16.12437093145231 7.807352153113912 0 0 0
194 2 2.4 6.6780861087271655 20.686763623513574 8.078708939502723 0 0 0
903 2 2.4 1.5947784522951514 21.278766502675644 8.112755304976954 1 -1 0
1755 2 2.4 3.6487255093832305 15.775726736428396 12.635286673066153 0 0 1
693 1 -1.2 1.9192527785541147 17.82354911385278 9.648975977095803 1 0 0
1318 1 -1.2 3.7884409191171367 16.626852898381586 11.285031869404614 0 0 0
263 1 -1.2 4.018214861590883 19.089545770863097 10.269047917848605 0 0 0
1986 1 -1.2 5.45183550801973 19.974790291516598 12.165113810350087 1 0 1
735 2 2.4 4.923612280885327 20.352345849335588 10.67506247367581 0 0 0
2078 2 2.4 3.0028676766265816 17.907070621415073 10.732950156809217 1 0 1
1101 1 -1.2 6.131903947704887 20.37334758588302 9.562695114357235 0 0 0
1052 1 -1.2 2.2241078131923073 18.35724195215106 12.014689036416144 1 0 0
123 2 2.4 6.75591142436116 20.150394171626054 13.05802190088062 0 0 0
1391 1 -1.2 5.972912299087446 16.70627677092239 8.636864029044089 0 0 1
1970 2 2.4 1.6627668569461078 19.403433390109985 13.027948294658776 0 0 0
351 2 2.4 7.151921028192103 16.28480229718644 9.67704388656121 1 1 0
1748 1 -1.2 4.187859498454717 21.815024632654243 10.481670240848823 0 -1 1
176 1 -1.2 2.43163182542527 20.797612517864895 12.81390214544645 0 0 0
2083 1 -1.2 1.1134516452152765 19.806213454746164 8.188127308787138 1 0 1
2009 1 -1.2 1.3018126621724497 21.94338034722524 9.55717934812194 1 0 1
1242 1 -1.2 4.210169765360613 16.664915219449824 13.829323210308255 0 0 0
1233 1 -1.2 6.561021750984828 21.718296758290762 13.371824510315756 0 0 0
741 1 -1.2 7.178544580675164 22.215161236009493 7.79586689997904 -1 0 0
2016 1 -1.2 7.7576406607460555 17.648917745833888 10.251835775159794 0 0 0
459 2 2.4 2.9000667154013344 22.20219199499161 13.538949371240468 0 0 0
1533 1 -1.2 7.962677570662557 19.66284455391056 12.175249696121174 0 0 0
512 1 -1.2 8.286154096995492 15.44445523401797 8.918695822629354 0 0 0
1094 2 2.4 14.0309562981099 15.578239650743468 11.419160190451148 -1 0 0
1037 1 -1.2 9.199197090777107 17.368860764185648 7.785999177278118 0 0 1
978 1 -1.2 12.27883207232952 17.81461680671045 7.942788150611153 0 -1 0
1369 2 2.4 12.336041653514842 15.418796353394955 13.74589125984967 0 0 0
1168 2 2.4 9.652346898312446 15.957776873349975 8.252367662843668 0 0 0
669 1 -1.2 13.469928273086833 15.97741416698627 12.848264666949301 0 0 0
1229 1 -1.2 10.903731847108341 16.083322092946958 9.281108621693258 0 0 0
918 1 -1.2 13.35539869658082 16.44979732789698 10.197686310022675 1 0 0
592 2 2.4 12.09566689935228 17.13724541357374 9.434228952784476 0 0 0
1858 1 -1.2 11.722203465735403 20.960699093396737 10.518858735451447 1 0 1
213 1 -1.2 13.94532689230607 19.39177432617332 10.058041184790481 1 0 0
158 2 2.4 8.658491077528927 18.767117340551806 10.99976543520256 0 0 0
904 2 2.4 12.559011047548802 19.639471742005714 10.94759268693859 0 0 0
160 2 2.4 10.228929300679694 21.3276140734896 10.04317379608664 0 0 0
1651 1 -1.2 9.426099530001686 19.895410611126227 10.149974844262838 0 0 0
1687 1 -1.2 9.509744309505772 17.70021759700605 11.935281721413437 0 0 0
1541 1 -1.2 11.77279749627985 18.385234788291957 10.405191903731117 0 0 0
242 2 2.4 9.534738997403428 16.25664431262596 12.51190712770782 0 0 0
678 1 -1.2 12.834121356464346 19.820406461209796 12.480615619287368 0 0 0
773 1 -1.2 10.996213531645674 15.808259001005434 12.998450701024558 0 1 0
1611 2 2.4 13.419435722601092 19.580296342810005 13.92349407093484 0 0 0
696 1 -1.2 8.495277397799912 16.124631462924768 13.71706010410592 1 0 0
1714 1 -1.2 10.467662926816054 21.85297270773218 8.501206799743873 1 1 1
308 1 -1.2 14.913491317161498 19.11153036818036 13.599673335570841 -1 0 0
876 1 -1.2 9.449933274853924 22.409161187114933 10.996156063279468 0 -1 0
396 1 -1.2 15.578908844118361 15.313354827019076 11.705548648703884 0 0 0
1074 1 -1.2 19.809237543584537 15.286540873405562 7.599312705640044 0 0 0
1896 1 -1.2 19.171962663905862 17.729639908281207 7.645852019898478 -1 0 1
1891 1 -1.2 18.070562166479718 15.32953509217935 12.11575583968883 0 0 1
345 1 -1.2 15.411125145146842 17.68993814513742 8.41315123406337 0 0 0
746 2 2.4 15.370469287257055 18.643247224724092 9.742628657639845 0 0 0
734 2 2.4 19.934193015675884 16.632594423701416 8.513164088154095 0 0 0
1325 1 -1.2 20.63895648133949 15.776328348554628 11.928192021696628 0 0 0
404 1 -1.2 16.42275612533416 19.775414082972617 9.41072317774 0 0 0
614 2 2.4 19.174725596146786 16.244703473741023 11.491304633715487 0 0 0
499 1 -1.2 15.701199475840575 18.08979172592799 11.31210352687637 0 -1 0
174 1 -1.2 19.131034418502683 16.375626202520493 9.886782360924474 0 0 0
223 1 -1.2 18.974686666849014 17.75494638147894 12.075568751464848 -1 0 0
1035 2 2.4 21.131764681174154 19.906561549167378 10.016610077574944 -1 0 0
237 1 -1.2 17.439956875128395 19.549811720899793 12.384685199299264 -1 0 0
508 2 2.4 16.2365875538885 18.56771900888419 12.792582537870992 0 0 0
141 1 -1.2 21.277239548823285 19.15245601076432 8.55077872687884 0 0 0
708 1 -1.2 19.728300307032132 19.751093726955055 10.779127338312717 0 0 0
1130 2 2.4 18.96239960742315 19.364119945131634 12.133098538747078 0 0 0
784 2 2.4 16.401235580870704 21.39724173051382 9.467063222835158 0 0 0
502 1 -1.2 19.68664721390169 20.08281932245476 13.382706995379774 0 -1 0
542 2 2.4 21.803834270908332 16.232126759373255 13.002031297684574 0 0 0
622 1 -1.2 21.502201687289563 16.32148541481685 8.883356629096662 0 0 0
1654 1 -1.2 15.884708499512524 21.930170856940343 10.907635163712472 0 0 0
2062 1 -1.2 21.608250119404286 21.33899792375234 9.604600769672388 0 0 1
1695 2 2.4 20.149187939085852 21.49260356554127 13.93176340936054 0 0 0
2111 1 -1.2 15.312917872515728 21.961401177669394 8.451611908468813 -1 0 1
731 1 -1.2 22.095480193705182 19.30353308516193 11.142452194155176 -1 0 0
498 1 -1.2 16.929260605366174 17.676390883022194 13.98265843883537 1 0 0
117 1 -1.2 17.790924825436374 22.168249613956636 9.169073560706229 0 -1 0
1545 1 -1.2 20.71894445310968 22.322266851026928 12.666426452626133 0 0 0
167 1 -1.2 25.9206942932971 15.534131396533486 10.765214995784321 -1 0 0
590 2 2.4 29.379443936758246 18.545328172345627 9.09864918173297 -1 0 0
2076 1 -1.2 23.752144411242757 18.757771824406166 7.709692713641265 0 0 0
1966 1 -1.2 22.939402826433124 17.13628942421113 12.341024395100899 0 0 1
737 1 -1.2 28.68736505921293 17.487454861918746 8.119610572236695 -1 0 0
1688 1 -1.2 28.834162194746572 19.482327967280224 12.648145280959632 -1 0 0
910 1 -1.2 26.11873426206208 16.004683192599618 13.170840149044505 -1 0 0
1160 1 -1.2 28.38934601130583 16.00122256996755 11.811464023147227 -1 0 0
1218 1 -1.2 25.708588037939236 17.194761551907273 8.008213764858922 0 0 0
1976 1 -1.2 25.883101332138594 19.549716135174517 9.153979385888535 -1 0 1
1994 2 2.4 24.86942398230423 18.32781352763415 8.82551620509218 0 0 1
2053 2 2.4 26.287307336064544 20.916290542722262 8.526182059540275 0 0 1
1138 1 -1.2 24.22908231632343 19.34989313865233 12.674989208240495 0 0 0
1203 2 2.4 23.36208241648729 18.498692315853166 11.601466303729804 0 0 0
586 1 -1.2 24.219119873616375 18.116555273836383 10.260107824188092 -1 0 0
2013 1 -1.2 26.86685317887925 17.931049339700117 11.746256336013797 0 0 1
1345 2 2.4 26.763518087482534 16.373289556797253 11.820045889608922 0 -1 0
458 2 2.4 25.43937062888523 20.221253512838295 13.229600264459188 0 -1 0
49 2 2.4 27.60825282987554 19.320880296157146 11.594520620303276 0 -1 0
1926 1 -1.2 28.505612139999297 19.131541305180598 10.253949998587284 0 0 1
1594 1 -1.2 26.46774774097247 20.34551336287669 12.032470956305014 -1 -1 0
20 1 -1.2 24.88556097773739 21.656088101807324 13.641424024382374 -1 0 0
1301 1 -1.2 27.44087924708935 21.722678375368762 9.28916625235819 -1 -1 1
322 1 -1.2 24.983579534812378 21.814483962372346 8.408391580413586 0 0 0
315 2 2.4 6.439704217561988 29.41451134613213 10.7078755466772 0 0 0
1863 2 2.4 1.9826242466577724 29.512303850107557 9.059332093125157 1 -1 1
450 1 -1.2 1.8390894983994805 29.236414991230852 13.122944937827983 0 -1 0
1161 1 -1.2 1.5385234385773088 29.214489745776614 10.521644018011768 0 0 0
864 1 -1.2 3.5365487003332303 29.267726380910783 8.618684386607782 1 0 0
1256 1 -1.2 4.287211382992561 22.73452762108708 12.979943575595696 1 0 0
1250 2 2.4 3.707147360006547 23.305928464870693 10.333187520635015 0 0 0
1636 2 2.4 4.647292913870345 24.815704555513737 7.819479123684623 1 0 0
1903 1 -1.2 6.6161174195375825 28.377718983312732 9.52256881933919 0 0 1
775 1 -1.2 6.423455954040567 28.949416130287627 12.306041693571675 0 -1 0
929 1 -1.2 5.171474118588556 25.813876190865056 8.959624169178062 0 -1 0
90 1 -1.2 4.812935497222574 24.32172603339847 11.028618718242512 0 -1 0
1935 2 2.4 4.869259528541673 25.898954367615776 10.549082243477487 1 0 1
443 1 -1.2 3.300241511144227 26.320749746072583 10.724207738065209 0 -1 0
247 1 -1.2 5.417798595728836 26.74868008129222 11.757776786238635 0 0 0
937 2 2.4 5.579288487667501 27.80039851347406 13.006758784762992 0 -1 0
474 1 -1.2 3.8442796302344173 23.77730341151038 8.8076259861068 1 -1 0
604 2 2.4 5.943104206789948 23.112755703711105 12.791159829126832 0 -1 0
1678 1 -1.2 2.1762185912950076 25.815373142732472 13.05833054537529 0 0 0
808 2 2.4 2.0926103591721663 25.576809836320756 11.465464199593994 0 0 0
549 1 -1.2 2.397573541482503 23.97990525725024 11.07805724808183 1 0 0
585 1 -1.2 1.4684049822653997 22.99338168086724 13.443958642055406 0 -1 0
2037 1 -1.2 1.188734392575907 28.49434617738798 8.008876861068636 0 0 1
317 1 -1.2 4.19312132911371 28.508989476206704 13.427018313072056 1 0 0
764 1 -1.2 7.052045661673146 23.292009578208535 11.614493084824954 0 0 0
65 1 -1.2 6.077913142717019 24.295061870889818 13.873764068637183 1 -1 -1
699 2 2.4 7.661057581883586 28.054966919359543 8.300077994110046 0 0 0
984 1 -1.2 12.299352505589782 0.7189424507495055 8.687643451568555 1 0 0
229 2 2.4 12.010077796027614 29.411683243179976 10.25405704297576 0 0 0
298 1 -1.2 8.433013070314857 24.572754915686826 7.508077119631277 0 0 0
310 1 -1.2 8.46566732340559 29.37603888269701 8.017398625822779 0 0 0
1085 1 -1.2 12.831014877657559 22.74920035476942 8.029180657427347 0 0 1
1806 1 -1.2 8.662552555944366 26.89326567016435 8.852618345591194 0 0 1
660 1 -1.2 10.698227175713553 25.438576808091874 8.580591606965175 -1 0 0
1329 1 -1.2 9.020960151702656 24.784680326894193 12.54234879473257 1 0 1
1354 1 -1.2 12.199241914511061 27.99934311477176 10.964446054999415 0 -1 0
506 2 2.4 8.598999778988624 23.74287569385863 11.389876852117448 0 -1 0
37 2 2.4 14.271806710351191 23.17862535111872 8.269722000496028 0 -1 0
150 1 -1.2 8.664415405944514 24.680911561320272 10.070869090206848 0 -1 0
733 2 2.4 9.175837440790902 25.37267457448547 8.704466588708144 0 0 0
16 2 2.4 13.906728379704132 24.747913306615843 11.13228418405103 0 -1 0
56 1 -1.2 14.175963731864544 24.00811750934483 9.714657190660793 0 -1 0
1352 1 -1.2 12.460059824402682 25.323880501525746 11.560515284383222 0 -1 0
319 1 -1.2 13.433740781102001 27.1254418586159 13.1369641630084 0 0 0
469 2 2.4 12.231650968919075 26.81664708233804 12.044638129569416 0 -1 0
814 1 -1.2 10.75023673259126 26.793273168650348 12.637364919106538 0 -1 0
1417 2 2.4 9.390252156741306 26.227614552550023 13.212610547904829 1 -1 0
329 1 -1.2 8.437277087695266 27.54683926279913 13.057220012046498 0 0 0
1677 1 -1.2 14.702616258102319 26.128452341719942 11.020450730970603 0 0 0
2030 2 2.4 8.901127427343615 28.877196599447416 13.858659288653609 0 0 0
1097 1 -1.2 14.571673944510962 23.70437824385513 12.185648531865734 0 0 0
1430 2 2.4 14.676728825988024 27.500986600002477 14.073434941492122 0 -1 0
209 1 -1.2 16.31133104228368 22.0795244254791 13.486065753355852 1 0 0
1668 1 -1.2 18.17263268522921 24.509948295762285 7.908697128505397 0 0 0
148 2 2.4 19.246581352116802 29.164511663523747 11.604617423474352 0 0 0
348 1 -1.2 20.17055401322632 23.05373047526954 8.375053168380337 0 0 0
2042 2 2.4 18.604953981936028 22.92044302717685 8.005490420222738 0 0 1
111 2 2.4 15.970149955986168 22.847511129676885 12.189859437102635 0 0 0
930 1 -1.2 15.625992620670582 28.528018183356075 10.319103313953702 1 -1 0
1381 2 2.4 21.624108908537444 22.788202288794686 9.099688354978447 0 -1 0
2072 1 -1.2 15.753616749583031 26.479884463560772 8.749730047663775 0 0 1
2089 2 2.4 15.825108799858143 26.979809500353653 10.265426445865298 0 0 1
1170 1 -1.2 18.92984222945375 28.65651863214561 13.109186144419985 0 0 0
790 1 -1.2 19.54789232624337 26.57935055573304 8.522399328705179 0 0 0
769 2 2.4 21.631779266042347 23.59424662059352 12.118142718120845 0 0 0
1698 1 -1.2 19.2147933861226 25.37547240045693 10.803363640687035 0 0 0
114 1 -1.2 20.980807379475607 24.79453764918173 13.010395943921461 0 -1 0
2080 2 2.4 20.11986525809112 26.496434497508194 9.996193281813618 0 0 1
912 1 -1.2 17.11334392405726 26.552800402692714 11.090480429521028 1 -1 0
277 2 2.4 17.982140086004826 25.364252515529916 11.81690238342467 1 0 0
1615 1 -1.2 17.114447711336393 23.968340561567924 11.916535925958812 0 0 1
1703 1 -1.2 19.801839364704644 27.78518010016706 10.925778032668545 0 0 0
511 1 -1.2 21.698814446537135 26.464807110168984 10.203373580134908 0 -1 0
670 1 -1.2 18.59365482252061 25.700141628527224 13.242652676486985 0 0 0
882 1 -1.2 21.71324724394845 23.547858053632183 10.520718865775429 0 0 0
1067 1 -1.2 15.809967108269088 28.556545800983947 13.550184367255282 0 -1 0
1191 2 2.4 20.014570922782333 25.507713189254353 13.99801106122631 0 0 0
1514 2 2.4 22.388132725363597 27.316048123871465 14.011208219341029 -1 0 0
416 1 -1.2 20.719700874742138 27.045969196281447 14.17489102669488 0 0 0
1717 2 2.4 0.7966638723499101 29.32926742629388 11.937844864925175 1 0 0
299 1 -1.2 0.7861817698702076 26.001599307608828 10.735398126711774 0 -1 0
603 2 2.4 24.64545885182789 27.945384880706136 7.654656452673785 0 0 0
116 1 -1.2 28.428041104302118 22.448729934613088 11.582818956641528 0 -1 0
1645 2 2.4 28.620062977681027 22.576348786120604 9.995468545633917 0 0 1
2063 1 -1.2 22.74676180316533 26.717039546188833 12.587073213569118 0 -1 0
1244 1 -1.2 25.38066180247754 29.008118037706673 12.871055498388586 -1 0 0
874 1 -1.2 25.955243652324803 28.791403692545387 8.100851406294137 -1 -1 1
589 2 2.4 24.494426066568998 23.24759664452524 8.0569102284664 -1 0 0
745 2 2.4 22.991001835660107 26.846386124960695 11.051986772316226 0 0 0
1952 1 -1.2 23.449053097281123 28.923266523896668 8.193888825369722 -1 0 1
582 1 -1.2 26.372520482845484 28.68702351522563 10.651343474125241 -1 -1 0
713 1 -1.2 24.726383830164075 26.62913285985336 8.591988762433516 0 -1 0
1690 1 -1.2 28.69315286141832 26.401447144140295 8.085088395916792 0 0 0
1423 1 -1.2 23.091291702987952 28.346391085143395 10.576920897434713 0 -1 0
1512 1 -1.2 28.19708397987948 28.40818112923172 12.311249998656681 0 -1 0
269 1 -1.2 28.511114162549628 24.063363911532015 9.480459406753344 0 0 0
905 1 -1.2 22.906315545370614 23.23909593475184 8.174483952156312 0 -1 0
700 2 2.4 28.639548489088817 23.00680988691939 13.121172575332457 0 0 0
1095 2 2.4 28.457137545611396 25.66536571084208 9.553633952421732 -1 0 0
1667 1 -1.2 25.17277528347084 24.189479776001498 9.144100442907726 -1 0 0
2147 1 -1.2 26.918202039027427 25.887062212681684 9.930629936644154 0 0 1
1253 1 -1.2 23.099830380774048 23.405706763019616 12.703271609769555 0 0 0
2065 2 2.4 25.39801988428321 25.697304478723407 9.587652693177741 0 0 1
374 2 2.4 26.638400742076147 28.220543551142466 12.166663005901766 0 0 0
476 1 -1.2 24.376664601104373 26.018363937629093 10.876672172463245 0 -1 0
804 1 -1.2 25.580993584913003 24.34019824122882 13.333381879788147 -1 0 0
858 1 -1.2 26.56421564161047 26.752914993687416 12.775910942236717 0 0 0
555 2 2.4 26.735881175106396 25.411011528958493 13.656313651034772 0 0 0
203 1 -1.2 28.041627872873313 24.55033840382369 13.200866074969383 0 -1 0
1911 2 2.4 24.366841054453523 23.202404571872126 13.66708959983758 0 0 0
461 1 -1.2 22.888860405929044 28.803336996355746 13.831405516879036 -1 -1 0
665 1 -1.2 4.511363667079828 3.948955967069444 15.128072547958826 0 0 0
112 2 2.4 4.297275689219768 5.383101258229487 14.543744186632521 1 0 0
121 2 2.4 4.730900659970086 2.399705180688783 14.747100099871998 1 0 0
645 1 -1.2 6.124824682742805 1.990509226159169 15.420843414064153 1 0 0
17 1 -1.2 1.5004158826288392 3.036545323628378 16.543049864984496 0 0 0
1506 1 -1.2 5.997721213058731 5.923638779690314 17.798702089247445 0 0 0
349 2 2.4 5.110658533552744 7.041424284568895 17.06299851816075 1 0 0
1179 2 2.4 4.638550536192048 2.8163751665804595 18.681880199097186 0 0 0
1716 1 -1.2 5.968845125955253 3.3489341015074543 17.936186614688875 1 1 0
58 1 -1.2 4.535232508033026 6.5295420124584584 15.669645115906246 1 0 0
1282 1 -1.2 5.006928743031624 1.2732115084094529 19.139810487955415 1 1 0
1745 1 -1.2 4.2724973257965235 4.086296251468217 19.61171509875148 0 -1 0
1790 2 2.4 6.943919783106875 4.622904300998931 17.805635067238757 1 0 0
81 1 -1.2 1.9625936965979616 5.417008960323206 17.909665372750233 0 0 0
1011 2 2.4 2.3685401266753763 6.802315765917573 18.61807905896326 0 0 0
1676 1 -1.2 3.009521972391616 6.381663705606893 20.03931954993418 0 0 0
1929 1 -1.2 3.602403556609209 2.4683893435231035 17.479240953405764 1 1 0
1030 1 -1.2 3.557700716311938 1.3631550841697868 15.272139891551957 0 1 0
962 2 2.4 2.436538024032597 1.6809524762003445 16.691469296047586 0 0 0
1331 1 -1.2 3.7560741539276354 7.304212675132278 17.95710015502258 0 0 0
133 2 2.4 4.041708458148603 5.334992730277096 20.64999743743357 1 0 0
572 1 -1.2 7.46163704251868 7.742984100580323 20.321457201026522 1 0 0
350 2 2.4 7.0975283118196 1.0763804583615797 16.23908448549632 1 1 0
1871 1 -1.2 7.802633899706034 4.602062209816805 19.202276750293706 1 0 1
1633 2 2.4 1.0384234112192654 4.467824507608521 16.948799977984113 0 1 0
370 1 -1.2 2.053097560401241 29.47244649893926 17.800099909728544 1 0 0
83 1 -1.2 1.415513343287437 29.531747837695466 15.530071696866882 0 -1 0
824 1 -1.2 7.829045445055408 4.559450848555564 16.412853193232998 0 1 0
2108 1 -1.2 0.9476310250684109 5.34245483688446 15.620941681003966 0 1 1
78 1 -1.2 0.7893188063305878 3.7561997952374835 20.374192159932633 0 0 -1
1780 2 2.4 8.008533317550476 3.636526621938082 20.518342353385783 1 0 0
483 2 2.4 13.861500852708263 6.671959576071548 14.324864629300267 0 0 0
259 1 -1.2 12.314906548962352 6.335634699215159 14.505145139716475 1 0 0
560 1 -1.2 8.208612291064082 1.647532823726261 17.301076491233562 1 0 0
1026 1 -1.2 8.590177881410497 2.303550767703574 19.901042620338178 0 0 0
193 2 2.4 8.655052624505853 4.319166372239969 15.08584802803633 1 0 0
911 1 -1.2 9.876349829305449 5.392620182839528 15.186242415287209 0 0 0
1309 2 2.4 10.679754919803507 2.033811092618656 14.692129807502257 0 0 0
1664 1 -1.2 11.524111093085718 2.270471862941169 16.01074812495399 -1 1 0
54 1 -1.2 9.304629762828977 2.9108656138427205 14.87016964539848 1 0 0
566 2 2.4 12.099562820854015 4.769068196302067 18.994470983516603 0 0 0
637 2 2.4 10.961312521513056 7.28183251877747 17.829048557004423 1 0 0
1175 1 -1.2 11.675955751351157 5.868789531475914 17.875029430993337 0 0 0
1699 1 -1.2 12.426400854497274 3.347847015228279 18.35298798231845 0 1 0
1276 2 2.4 12.019347303738952 2.001246723918233 17.526542207172763 1 1 0
801 1 -1.2 13.175686582482674 5.5481631300422976 19.920819932445678 0 1 0
970 1 -1.2 9.507584016745403 7.305141268263893 18.523979652287597 0 0 0
2028 1 -1.2 10.63733451413288 1.6158261872896862 18.261559506731913 0 1 0
1347 2 2.4 9.075343438875237 1.4184527475533073 18.66071295803426 0 0 0
1631 1 -1.2 10.899118667197738 4.613029445409218 20.0504997750907 0 1 0
1489 2 2.4 14.730822975858569 5.782001848386468 19.9553439391352 0 0 0
1279 1 -1.2 15.051177761387663 5.956769883252928 15.203555332345092 1 1 0
479 1 -1.2 13.148974288980355 0.8785648248612752 17.545999795984734 0 0 0
2144 1 -1.2 16.493571124053013 2.204903726320854 14.330796109309206 0 1 0
355 1 -1.2 20.64513246320274 3.1285967484665087 14.20574003885299 0 1 -1
1232 1 -1.2 15.005746994438574 7.318156955666718 19.589443284659747 0 1 0
444 1 -1.2 15.272774649293579 4.846634845887604 18.705528470895214 0 -1 0
896 1 -1.2 16.012050639722908 2.4215943048349713 19.26758704443963 0 0 0
1192 2 2.4 16.22782054376181 3.6332665933069164 18.186323052832595 0 0 0
505 2 2.4 20.218843049097366 2.313747568995377 15.578505087653491 0 0 0
2106 1 -1.2 16.14021530852115 3.123376137954021 16.706789492751838 0 1 0
61 2 2.4 16.65793844700299 6.1842973528070315 15.18687010061854 1 0 -1
1288 2 2.4 17.132392305814022 3.1300867271759607 15.435126960853529 0 1 0
2079 2 2.4 19.34287288829533 4.586554382657832 18.75246769750019 0 0 0
1314 1 -1.2 17.741475564245707 4.353972433997411 18.299499698926063 -1 0 0
836 1 -1.2 19.659791715886918 3.107720478599956 19.40643727135777 0 1 0
1128 1 -1.2 17.371044263086244 4.732021608287537 15.130958409395669 0 0 0
1836 1 -1.2 18.647593545921705 2.552297622754347 15.724232658675593 0 0 0
497 1 -1.2 19.458646120238456 5.6063931030363605 20.09958409358797 0 0 0
1555 1 -1.2 20.100333611851678 5.40095048496355 17.627008434228493 0 0 0
1939 1 -1.2 20.957448465562226 2.6073988226280065 16.9525438326612 0 0 1
1765 2 2.4 21.04475868715383 6.6290401169483655 17.07201292536497 0 0 0
1209 1 -1.2 21.854852979235254 1.1769204168071676 19.02083521118426 0 1 0
1029 1 -1.2 17.367494820879966 7.1218658930892245 16.264285176572848 0 0 0
548 1 -1.2 19.924450689070422 7.570146781451129 16.322820165123368 0 0 0
639 2 2.4 22.034548326282096 2.5193594681132447 18.145282242289372 0 0 0
53 1 -1.2 21.843567348895583 7.6342672264433125 18.144902408446832 0 0 -1
1225 2 2.4 19.284538550409113 2.0984352733851543 20.575540005333885 -1 1 0
986 2 2.4 16.28851410470884 1.793661673851609 20.65981834312366 0 0 0
1135 1 -1.2 20.33269512720696 0.7497142210302243 15.132755587619057 0 1 0
1637 1 -1.2 22.257074174357886 5.981793463773526 16.216271807489722 0 1 -1
454 1 -1.2 22.191395132685695 3.9276691390446934 18.933426755761438 -1 0 0
1197 1 -1.2 28.078994777340085 1.5861885405857499 14.407741833959458 0 1 0
1427 1 -1.2 28.51432552265099 4.250539031045896 17.961461170578794 -1 0 0
1133 1 -1.2 24.531178912163238 1.5677679216762248 14.987375602077758 0 1 0
1363 1 -1.2 23.654497069482627 3.830100508210506 15.411879549205599 0 0 0
1173 1 -1.2 24.88672506064813 5.913098878173033 15.561348627452174 0 0 0
1249 2 2.4 28.18690479913754 3.9874348111467874 19.468870076482453 -1 1 0
822 1 -1.2 27.191726898824108 2.7001629866360277 19.285029605028882 0 1 -1
88 2 2.4 23.37500570703697 5.45457000827527 15.142030091792442 0 0 0
533 1 -1.2 23.374346670064995 2.3651793234852345 17.36661661410631 0 0 0
529 2 2.4 24.417211624206114 2.698449980688778 16.180370428992994 0 0 0
336 1 -1.2 27.143697141892286 5.0737998413496035 19.844115934547087 0 0 0
2131 1 -1.2 26.38472249297934 6.386252502088938 17.67428394164045 0 1 0
880 2 2.4 26.086740283417864 6.742950772176171 16.1341304333798 0 0 0
1437 1 -1.2 24.51820081060669 5.283966314619027 19.202191572785342 0 0 0
1587 2 2.4 26.04587037475384 6.033186492634817 19.131834885949672 -1 1 0
1323 2 2.4 23.196827238383342 4.6654771061444364 19.975228005679398 0 0 0
1881 1 -1.2 25.823125329947466 2.8136697943573283 16.944292572225436 -1 1 1
1322 2 2.4 26.73135285419897 1.9164594349207003 17.952905871117142 0 0 0
705 1 -1.2 27.377664547979876 6.936383283576681 15.223902983344095 0 1 0
463 1 -1.2 27.921356671806702 1.356283161680187 17.034219161827263 -1 0 0
897 1 -1.2 25.887919122977408 7.337508590995833 20.046053290435168 -1 0 0
1927 1 -1.2 24.522526998728335 1.194508810004126 20.504220038794884 0 0 0
304 2 2.4 28.510189875614355 29.50846032686391 15.67958566574841 -1 -1 0
1575 2 2.4 28.513228240495604 7.79909846822145 14.180645000997972 0 0 1
644 1 -1.2 1.2429819563213722 7.954094088695549 18.611219246457143 1 0 0
1808 1 -1.2 1.4240042708881369 8.10463088836968 14.54961076872951 0 0 1
972 1 -1.2 5.878133422937085 8.392459145247638 17.09526897996584 0 0 0
1039 1 -1.2 3.1757498345847295 14.073784852721566 14.59660375311893 0 0 0
816 1 -1.2 6.095612533333499 10.417477571044627 15.734953963559484 0 0 0
862 1 -1.2 3.7851209880649437 9.175661159752064 15.273497950529112 1 1 0
189 1 -1.2 4.495435663918092 10.56791933223663 17.61671968622602 0 0 -1
916 2 2.4 4.27435693044025 12.982489768790463 14.95327155235483 1 0 0
1310 2 2.4 4.506265131787469 10.361851520319686 16.046945118143825 0 0 0
80 1 -1.2 2.106598467102835 10.346209585423342 18.580635669733553 0 0 0
927 2 2.4 3.5394116473530777 11.028184821112214 18.841323045826805 1 0 0
653 1 -1.2 3.723658548356162 11.627072933407437 15.578488598328702 0 0 0
2158 1 -1.2 5.2039670498521025 13.565727906493189 16.105108767131213 0 1 0
1150 1 -1.2 3.446378233710752 12.59776784385239 18.887950628093908 1 0 0
280 2 2.4 3.0692865591188436 14.034353103261092 19.506942207174347 1 0 0
649 2 2.4 6.608975863640507 13.929704379490538 16.855704580723625 0 0 0
647 1 -1.2 1.4995508165695115 14.272196078350786 19.370358844121252 1 0 0
1467 2 2.4 6.985321931816509 9.442752776013933 16.751120149110214 0 0 0
1987 1 -1.2 4.02532831825881 10.386157432574553 20.1841043290998 0 1 0
989 1 -1.2 7.090206059510648 12.747924307065068 17.766386151075128 0 0 0
1313 1 -1.2 6.903045221246844 11.740602259950503 20.250156728092993 0 -1 0
136 2 2.4 1.7984285273674672 14.849258918521876 14.545104376628386 1 -1 -1
546 1 -1.2 7.513553143875904 14.446466007679025 15.633247632645896 0 -1 -1
1834 1 -1.2 7.46817873714272 10.358367153844462 18.014117096865768 1 0 0
878 2 2.4 7.623685178346475 11.727355735627826 18.830748695949833 0 0 0
819 2 2.4 8.975218813028848 7.852271664717304 19.956624066453394 0 0 0
465 1 -1.2 10.909289880595457 8.185779338231365 16.52739562558284 0 0 0
1404 1 -1.2 8.143175312028035 8.573311994360342 16.057298380149096 0 0 0
185 1 -1.2 10.868755055270743 11.887709611490106 14.716936065313883 1 0 0
1770 1 -1.2 11.791090092480403 8.24303859178982 18.950725098056143 0 -1 0
760 2 2.4 12.44300501083228 12.33431481817532 14.434445087345928 0 0 0
1727 1 -1.2 14.037396651263975 8.15516796095653 14.741156697361353 0 1 0
424 2 2.4 8.834971105849498 8.480575088681277 14.607619913861475 0 0 0
1188 1 -1.2 9.863168023135604 9.743297811247963 14.756918124300759 0 0 0
915 2 2.4 10.9155861982786 9.715000858036847 16.054793918820003 0 0 0
914 2 2.4 14.027075165043469 9.194127370831643 15.907819918840007 1 0 0
70 1 -1.2 12.509369673011221 9.809993851383327 15.868827762265358 1 0 0
680 1 -1.2 10.385894399124552 10.403236224893647 17.363466479858555 0 0 0
2126 2 2.4 10.218347174518227 10.749726537009185 18.919321396979683 0 1 0
2134 1 -1.2 9.180955102586827 11.903338573836043 19.105014250407006 0 1 0
996 1 -1.2 13.461464926229635 12.41860615405691 15.584471307345108 0 0 0
1008 1 -1.2 13.796704587646012 11.670477840155199 18.050048951920573 1 0 0
1358 2 2.4 14.581087058641888 11.882470074784555 16.616735979699143 0 0 0
19 1 -1.2 11.763871963607246 10.874006423818168 19.60173545522045 0 0 -1
609 1 -1.2 13.746866015672785 9.46313345245226 19.777005670030608 1 0 0
1185 1 -1.2 12.094056477670915 13.416929988949917 18.825625441608146 0 0 0
1766 2 2.4 12.901831418749982 12.081983812104799 19.292473061424374 0 0 0
1559 1 -1.2 9.638522266737503 9.420843306230575 19.766409793898518 0 0 0
1341 1 -1.2 14.246689062180897 8.475943283432752 17.31003047322316 0 0 0
1923 2 2.4 12.244253110043978 9.201701927460588 20.086693819859857 1 0 0
1597 2 2.4 11.485204441323818 14.83914759410303 19.22430117502066 0 0 0
490 1 -1.2 14.974708235393896 10.43566669522832 16.041121623677096 0 0 0
1969 2 2.4 14.815048282427348 8.696917159842254 18.861858492915196 1 0 0
1546 1 -1.2 10.82801500225568 14.533613716225915 20.66470523412045 0 0 0
1842 1 -1.2 13.563083916294953 12.45305934204885 20.647998546187363 1 0 0
1564 2 2.4 18.83213482648426 10.554712458864396 14.267642739788233 0 0 0
385 2 2.4 18.477243646776028 8.25117069332357 16.471932839900884 0 1 0
959 1 -1.2 15.864584067091418 12.761023259942329 16.696070963894428 0 0 0
1473 1 -1.2 19.433677167229664 11.871160622843853 14.95548259435997 0 0 0
968 1 -1.2 16.340676953916837 13.190059244124294 19.177366741933252 0 0 0
691 1 -1.2 18.33997808248112 8.981328935789096 17.857351520605242 0 0 0
1196 1 -1.2 16.178196967470768 9.542034855527247 18.868137270165743 0 1 0
231 2 2.4 17.771732623862608 9.995609061154843 18.879860092112523 0 0 -1
1697 1 -1.2 18.385231578703284 9.444002131741197 15.305350061073787 0 1 0
938 2 2.4 17.094864867382388 12.905863746298305 17.68892349477648 0 0 0
24 1 -1.2 20.337767767284376 11.83964942063035 19.703936644460544 0 0 -1
281 1 -1.2 17.79838986651943 11.482790781893486 18.07734708781533 1 0 0
569 1 -1.2 20.714830632648017 12.591626203984232 17.140982766560263 0 0 0
1539 2 2.4 21.188751949756263 11.660033759278122 18.355463081791925 -1 0 0
1669 2 2.4 20.53015218543816 12.85998679185579 15.558968250772153 0 0 0
1007 1 -1.2 19.924179018889568 14.363123534440824 15.542010931934474 1 0 0
487 1 -1.2 18.007873404207498 14.114164730356185 17.320123166590367 0 0 0
1749 1 -1.2 21.13784967739295 10.170260627850517 17.781738198638262 -1 0 1
236 1 -1.2 20.496444197238844 14.220141688205356 20.21012969168781 -1 0 0
1018 1 -1.2 21.808380852956848 12.708338309754838 14.650834169494583 0 0 0
1823 1 -1.2 18.25273965569241 9.817835672676807 20.424192449052086 0 0 0
1227 2 2.4 22.259543091415505 9.174894238169315 18.318479166298093 -1 1 0
2069 1 -1.2 22.44754819633603 9.704242834002304 19.834150617670396 0 1 0
1334 2 2.4 19.13611328287976 15.1918279479908 16.74797154508269 0 0 0
747 2 2.4 16.593010052842928 13.039813880966479 20.70018515918803 0 0 0
238 1 -1.2 29.36591160152113 14.072192512788565 15.16489812408438 -1 0 0
327 2 2.4 0.734332360091603 9.498620272919126 18.62059858677321 1 1 0
778 1 -1.2 25.442772014421646 8.272065865202933 16.33677558302518 0 0 0
717 1 -1.2 28.7418001624472 10.101606751144137 19.915733099600857 0 1 0
1655 1 -1.2 22.696477884892634 12.202267966317331 18.761696496373737 0 0 1
743 1 -1.2 28.504582035902395 9.897718723066742 17.28901215533026 -1 0 0
1414 1 -1.2 23.882425056352943 9.975170819894851 14.996582610893272 0 0 0
324 1 -1.2 28.05703721273147 11.897203481770294 15.456066668594568 0 1 0
1731 2 2.4 23.68281915258474 13.419998042982966 18.812525252789193 -1 0 0
565 2 2.4 27.940279151761647 13.437276422795142 15.615578331959133 0 0 0
1339 1 -1.2 28.005386857068927 9.297567631579469 14.862894723706969 0 0 0
1421 1 -1.2 23.621404462936546 9.62636216543424 17.5751540513953 0 0 0
413 1 -1.2 26.16666826332485 10.577423261422583 16.39894611426401 0 1 0
843 2 2.4 27.723440724886245 10.401927243469457 15.97372806570844 0 1 0
135 2 2.4 24.78333808248359 9.723064962263186 16.434284973998015 0 0 0
2000 1 -1.2 27.585089969662295 12.367097204526964 19.473805957169592 0 0 0
2091 2 2.4 26.911644460406002 13.586036140625774 18.609552431410126 -1 1 0
2045 1 -1.2 27.50364184867762 13.761084334881401 17.105375518523736 0 0 1
1831 1 -1.2 25.297269649555634 13.327853983484875 18.660313986339265 0 0 0
561 1 -1.2 23.505045565915427 14.060999053825746 20.28151790974235 0 0 0
108 1 -1.2 23.253013097541864 14.408271886427157 17.654839504958208 0 0 -1
1092 1 -1.2 26.76938251119733 14.157993332046274 14.758154015496642 -1 0 0
556 2 2.4 28.260044353994772 11.427621362808617 20.594033496663954 0 0 0
1422 1 -1.2 27.577676879080194 14.91048238220404 19.330082592254247 1 0 0
965 1 -1.2 3.846086421772532 15.190884581264179 18.70411717555019 0 0 0
1675 1 -1.2 6.777546154037076 19.461862832765913 14.463438979769725 0 0 1
1665 1 -1.2 6.220889593070198 15.223795172385703 17.750986918052725 0 1 0
812 1 -1.2 1.967424953055427 18.815956842342636 14.494487763261349 0 -1 0
129 1 -1.2 1.6604560860804263 16.356270126749664 15.063478756657236 1 -1 0
1501 2 2.4 4.822988932813139 17.09764471186828 15.213286928942253 1 0 0
1236 1 -1.2 5.035013557621931 18.570720506411728 15.780252710016345 0 0 0
1297 2 2.4 6.202033870113287 19.61442205445545 15.960533640622549 0 -1 0
944 1 -1.2 3.298311998539555 20.879368945987718 17.430634356907557 0 0 1
1107 2 2.4 4.925400759625771 16.11476800016674 17.938297886859967 0 0 0
1126 1 -1.2 5.152671528317722 17.545550873684334 18.643691667137766 0 0 0
1713 1 -1.2 5.481598692525134 21.024017406488028 16.23708613991007 1 0 0
1204 2 2.4 3.218941223637335 20.343663756480478 19.075922429565548 1 0 0
1630 1 -1.2 4.675507102357937 19.884837789729627 19.543371795389756 0 0 0
1047 2 2.4 5.440646796489357 18.552438772387585 19.8901374725504 0 0 0
883 1 -1.2 6.337862439141942 16.553230664117507 15.08019322707918 0 0 0
2035 1 -1.2 2.202738776625056 19.080789643780683 19.285257222522464 1 0 0
632 1 -1.2 4.308229824491212 16.318542972856957 16.484960300387026 1 0 0
1715 1 -1.2 7.098554752383146 18.613814333191236 20.01180253426151 0 1 0
2121 1 -1.2 2.7234719418491427 21.651446299864155 19.739155794023258 0 0 0
1113 1 -1.2 7.467237780677566 19.485772695864494 16.966922017102824 0 0 0
621 1 -1.2 1.5308460766186982 17.979815644648458 17.073310937199896 1 0 0
314 2 2.4 4.057572456383186 21.846119004128926 16.428312365651685 0 0 0
999 2 2.4 1.0703372034192908 18.166004391503566 18.568766809640636 1 0 0
998 2 2.4 1.240951572481256 17.822756807242428 15.516380811832448 1 -1 0
2156 1 -1.2 3.2507967297680285 21.94079555539559 15.07836743925502 1 0 1
1247 1 -1.2 0.7998330492245009 16.734682316847195 19.192623199653006 0 0 0
1658 2 2.4 7.825694291765593 15.947980277884163 15.122271106739113 0 0 1
1308 1 -1.2 7.960819482126492 21.150003546435073 18.869438160350185 0 -1 0
1458 1 -1.2 10.565535615376174 15.239474414135104 18.042922644366694 0 1 0
829 2 2.4 8.330770888246603 17.632591909465063 20.190885881792852 0 0 0
1488 1 -1.2 12.490869895576663 18.444607849321162 14.601365967054932 0 0 0
1291 1 -1.2 12.346997529554782 16.075593921006593 15.234683533082135 1 0 0
468 1 -1.2 13.350549649023058 20.788195288446254 14.926577201883685 0 -1 0
1985 1 -1.2 8.99151434587834 17.05820230851913 18.74714415262241 1 0 0
623 1 -1.2 8.814930346749296 16.508568193853105 16.254840238338733 1 0 0
877 2 2.4 8.600890303979641 20.32711883876777 17.651236812762935 0 -1 0
1093 2 2.4 9.85284072546978 16.59925655164838 17.474504942006977 0 1 0
1102 1 -1.2 12.168480278753998 20.17786638099325 17.097291547566606 0 -1 0
602 2 2.4 11.564567773178565 19.784821077762135 18.522242395430677 0 0 0
821 1 -1.2 9.959328396376673 19.746976713625344 18.2220951382543 0 0 0
1400 1 -1.2 12.351807703830131 18.520639772731897 19.15552545256836 0 0 0
1515 2 2.4 13.366253247388173 17.393097470058304 19.77511493078651 -1 0 0
952 2 2.4 12.322689534827079 17.48929636633035 15.914705192459634 0 0 0
727 1 -1.2 11.068322125367057 17.447391936642497 16.865951478526693 0 0 0
992 1 -1.2 13.601541188437292 17.665897044258514 16.791966143177987 0 0 0
1401 1 -1.2 12.674764706873463 15.996926313469015 19.553002977065177 0 0 0
1721 1 -1.2 11.88746477358508 21.04444539919105 19.466108798041397 1 1 0
770 2 2.4 12.732342413723174 21.454740341730584 16.16685942882507 0 0 0
755 1 -1.2 9.050841337952017 21.428031690803678 16.549305855512884 0 0 0
318 1 -1.2 14.737584519405656 17.354373793132503 18.94582387869172 0 0 0
756 1 -1.2 13.788333793170475 22.272916540476185 17.1090626825064 0 0 0
611 1 -1.2 14.796137312105111 22.375449651033477 19.619448019494435 1 -1 0
725 1 -1.2 16.545483369998635 15.296437896360212 14.276410146906704 0 0 0
1190 2 2.4 15.04508389472798 17.8519985901548 17.44457227152251 0 -1 0
1076 1 -1.2 21.120956496341584 17.0711545721238 14.206210681005414 0 0 0
954 1 -1.2 19.97183617049513 15.521510762675682 18.030509081498643 0 0 0
1530 1 -1.2 21.40477601198879 21.399117772679148 14.958785912491912 -1 0 0
1532 1 -1.2 15.64308138969917 19.416447516346917 17.507141758766995 0 1 0
98 2 2.4 20.627997984219405 15.674931863241657 19.499272575658324 0 0 -1
951 2 2.4 16.913343767203624 16.589956116132697 15.18059050654619 0 0 0
690 1 -1.2 18.23136978781105 16.259229335857313 15.954439828950775 0 0 0
1494 1 -1.2 18.120830203334123 17.80710563399958 18.724567259871236 0 0 0
1071 2 2.4 18.236002004584364 17.405418142882617 20.254086825887004 0 0 0
2087 1 -1.2 20.228572885679803 18.025313764497632 16.721475278469267 0 0 0
1014 1 -1.2 15.996524892184329 17.08882497128324 16.384810931865374 0 0 0
1155 2 2.4 19.11070394001004 18.62923229013193 17.667003693438215 -1 0 0
887 1 -1.2 18.03625992745687 19.501604412788623 16.809659228150544 -1 -1 0
1147 1 -1.2 19.54931383985264 16.606182837423372 20.359943205420798 0 0 0
1962 1 -1.2 19.94970576628844 19.51247777926214 18.688639900405374 0 0 0
1324 2 2.4 21.529073057093207 19.99536998195337 18.97021479871743 0 -1 0
1995 2 2.4 16.855618434925066 20.429131484734167 17.177031441071474 0 0 0
1370 2 2.4 21.38739733691522 17.623586704768837 15.711789437684537 -1 0 0
2135 1 -1.2 17.309556744587223 21.507712539786187 18.35701873672512 0 0 0
967 1 -1.2 16.642310678936738 21.495295065434362 15.966366093605954 0 -1 0
945 1 -1.2 21.61975506493488 20.755489138341236 17.50075573013763 -1 -1 0
933 1 -1.2 22.06124849732351 16.44587780894649 19.438085968166792 0 0 0
1451 1 -1.2 21.358267941125053 19.090188926947995 20.57546039561344 -1 0 0
935 1 -1.2 22.208455425273858 19.02131627490624 15.56182493113785 0 -1 0
1468 2 2.4 22.25143160550476 20.58133499449659 16.06677892863582 0 0 0
1603 1 -1.2 22.206716280048973 21.19037844016892 19.89563397688942 0 0 0
1151 1 -1.2 18.810955840240158 22.25793003171264 14.435139377639342 0 0 0
2004 1 -1.2 27.877800339018652 22.050871701862015 14.2010322646292 0 0 1
993 1 -1.2 24.48625042215098 15.341258337675372 15.476965937507595 0 0 0
1176 1 -1.2 22.22257789227738 16.430914926272248 16.23494601765526 0 1 0
375 2 2.4 29.03799342844922 15.296087927025363 19.813513539021535 -1 0 -1
1626 1 -1.2 26.16834474166895 19.2800732743762 14.352142850028493 0 0 0
1284 1 -1.2 22.630406045862742 18.823431074576078 18.523314508798777 0 0 0
676 2 2.4 25.84235725713257 15.442355925844149 14.643921226745716 0 0 0
1157 1 -1.2 26.407242115342388 16.737653355931617 15.478324733479667 -1 0 0
856 2 2.4 23.557516089838053 15.667142266347803 16.713116689100787 0 0 0
605 1 -1.2 24.067694617850282 16.758806321119405 17.746264027425003 -1 1 0
518 2 2.4 26.794687450316072 18.275486789997082 15.475125044486763 0 -1 0
811 1 -1.2 28.481920848582558 19.057677757305743 18.555199389193582 -1 0 0
955 1 -1.2 28.402062771896226 18.121017378543147 15.198906595526225 -1 -1 0
1198 1 -1.2 26.5129525804547 18.82103897149906 16.959983187056935 0 0 0
2133 1 -1.2 28.07178884129634 20.655949695716853 16.52716512256484 -1 0 0
1143 2 2.4 23.290445587854556 17.44369499359333 18.97144814158747 0 0 0
445 2 2.4 27.358484436441795 19.839052007624346 17.79901711003903 -1 -1 0
1493 1 -1.2 27.019796243433206 20.997024807603463 18.82911381211685 0 -1 0
1028 1 -1.2 23.755244981926566 21.11718645252879 16.16870577811423 -1 0 0
1777 2 2.4 27.782494177003976 21.731306246915167 20.072210530750343 0 -1 0
283 1 -1.2 24.2316769060669 17.561005858566514 20.225921183778862 0 0 -1
1131 2 2.4 27.683173782715023 21.992872788228542 15.798070305630139 0 0 0
961 2 2.4 7.34322161180975 22.437969154788025 19.513463230477363 0 -1 0
552 1 -1.2 6.0522757195777 26.832693028252837 14.330682108934202 1 -1 0
926 2 2.4 2.773349913411861 28.942252218912234 14.417927911191452 1 -1 0
701 1 -1.2 4.008496480036285 25.364058280972 14.897381084438038 0 0 0
1956 1 -1.2 2.4386488563767434 27.3713192810428 14.968482357563596 0 0 0
1617 1 -1.2 6.227333254503604 28.98584199810989 17.208234567599536 0 0 0
1286 2 2.4 1.865208824139693 22.9747857648931 19.449921155268264 1 0 0
1802 2 2.4 5.289795324685549 28.67130535257908 18.424664064555312 0 -1 0
1786 1 -1.2 5.711781777745726 27.583612390827174 19.46121837195838 1 -1 0
1057 2 2.4 2.4809937061051 27.98910300207209 18.286098547023848 0 0 0
1670 2 2.4 5.642469423087964 25.42972466661682 14.93115591466535 0 0 0
235 1 -1.2 2.862747874206933 28.195951417683695 19.867639150371634 0 0 0
899 1 -1.2 6.390181464875276 23.24280303624381 18.509270363028314 0 -1 0
2097 1 -1.2 4.532562912720444 23.28003884344952 16.897201477384073 0 0 0
494 2 2.4 5.522816152747352 24.241196727481043 17.693354209994162 1 -1 0
1641 1 -1.2 6.1155782726700085 25.148131988933567 16.451268712194313 1 0 0
1285 2 2.4 2.484146726449929 25.847271837071364 14.678742107034958 1 0 0
382 1 -1.2 3.9627084645369828 28.00553764746637 17.673085591155893 0 0 0
1353 1 -1.2 4.868100442636598 25.219822771774556 18.79863823020575 0 -1 0
342 1 -1.2 1.596869917164574 25.085643143753877 15.76519070031416 1 0 0
1120 2 2.4 5.365852542104446 26.130507596132947 20.021656425681524 0 0 0
802 1 -1.2 1.903822161006907 23.57476867315685 17.974773281100425 0 0 0
394 1 -1.2 1.2003904344289569 27.03493747552741 18.354726388852598 1 0 -1
2092 2 2.4 0.9514863951862965 24.18785704526652 16.90028627467513 0 0 1
126 1 -1.2 2.3855658678240372 24.157714368646722 20.55402932758499 1 -1 -1
1349 1 -1.2 6.724875844447686 25.414001650979184 20.53682913800074 0 -1 0
1499 1 -1.2 29.412126892838927 29.18842281878185 20.61256211371835 -1 0 0
1041 1 -1.2 11.463338204549855 22.41477997271172 15.983807805830136 0 0 0
1682 2 2.4 10.963919548679232 22.45344128755962 19.79667935115588 0 0 0
1199 1 -1.2 7.825945369323497 29.093748122660294 15.024162342161324 0 0 0
761 1 -1.2 8.47106802532652 23.579469630920777 19.823903330284402 0 0 0
581 1 -1.2 10.407578260307753 22.612332302898817 18.334148961466866 -1 0 0
1119 2 2.4 10.045492227172343 22.695232793794972 16.752992084906957 0 0 0
1893 1 -1.2 10.335577087501989 29.258168089213815 14.639878538210077 0 -1 1
1239 2 2.4 14.51007095003161 23.119835114965348 18.23063373344431 0 0 0
988 2 2.4 13.87223167008171 28.370955018970143 17.06379033867574 1 -1 0
1616 1 -1.2 9.423815688493 24.105695219589812 16.591952764500597 0 0 0
846 1 -1.2 9.614003179093347 26.026283187753048 14.801590496097857 1 1 0
113 1 -1.2 9.772928249255214 26.77791477923881 17.33787850143265 0 -1 0
835 1 -1.2 14.113283987803323 28.10242220019449 15.464177631979974 1 0 0
1108 2 2.4 9.706477248691716 27.343641741917985 18.839391770395242 0 0 0
698 2 2.4 13.060370253697414 25.297633483135833 17.012169817285294 0 0 0
682 1 -1.2 11.601810755266515 25.23469227214082 16.45215360497125 0 0 0
1178 2 2.4 10.02626220263853 25.546600600132308 16.290998472130074 0 0 0
679 1 -1.2 8.890625015646883 28.66758754501135 18.892735118162456 0 -1 0
1835 1 -1.2 11.126303930045397 27.556260943234392 19.492840618593018 0 -1 0
227 1 -1.2 14.259596210573056 24.897543237346625 16.068016168650246 0 -1 0
1049 1 -1.2 13.50925964277786 24.431296378462736 18.264186070714082 0 -1 0
1343 1 -1.2 8.960682137486254 26.2069272841287 19.678124916043707 0 -1 0
330 1 -1.2 13.264895539281543 26.91469575432016 17.41002761515592 0 0 0
884 1 -1.2 11.697176012964624 23.70908009745034 20.284894591189005 0 -1 0
1132 2 2.4 8.297200136590956 25.032267363428723 20.502438582394877 1 0 1
1518 1 -1.2 15.385030945955002 28.28994250386221 17.673253105049852 0 -1 0
640 2 2.4 17.205756793422275 22.482960823999008 14.834146054513528 0 0 0
2001 1 -1.2 19.030827112550575 29.335149919228943 20.26064744635177 0 0 0
162 1 -1.2 15.562389670883798 26.173209385885077 14.43794228305343 0 -1 0
102 1 -1.2 15.656579054134882 26.44222173414924 19.49562757758895 0 -1 0
1023 2 2.4 19.573706819416984 28.327252916841548 14.539504001667078 0 -1 0
1141 2 2.4 16.312130980810124 27.12897004679388 18.179919031949197 0 0 0
1548 1 -1.2 15.999508258829012 23.59571527424144 17.855510761715838 0 -1 0
389 1 -1.2 16.366633465660914 26.10752980205424 16.8810768522256 0 0 0
273 1 -1.2 20.154700675391076 24.706623555744997 15.348515353022922 0 0 0
694 1 -1.2 20.378549644649222 28.088731141240864 17.877966427439997 0 0 0
591 2 2.4 15.838906016760747 25.158156759822614 15.691865484711917 0 0 0
1320 1 -1.2 18.761290420987393 27.656831712722784 15.715974551126994 0 -1 0
1439 1 -1.2 18.73647601226709 23.425471693593522 17.347019323709485 -1 -1 0
960 1 -1.2 19.409636429056953 25.840547670098303 17.345821409263547 0 -1 0
1737 1 -1.2 16.725084908319957 23.949985231184623 15.155189959301698 -1 -1 0
337 2 2.4 19.96743145461707 24.386798347455894 16.927170297855337 0 0 0
2114 2 2.4 19.04893262749986 27.376028879394916 17.28641842543959 0 0 0
2128 2 2.4 17.477203036109632 23.161809751808637 18.33010688186136 0 0 0
1582 1 -1.2 21.433104591643268 24.10427121907135 17.523093789284303 0 0 0
832 2 2.4 21.736286078479022 28.46322818734821 18.77891648298134 0 0 0
1152 1 -1.2 17.804676069724053 27.714665104402247 18.268778111082224 1 -1 -1
406 1 -1.2 17.763813050926966 24.095177656512682 19.631855729018284 0 0 0
257 1 -1.2 19.986355018354914 25.302126379708543 19.94917500328047 0 0 0
855 2 2.4 21.42714267090288 25.801300076159364 20.351356826725123 0 0 0
2098 1 -1.2 21.60615623741898 27.397055751950063 19.994878162935393 -1 0 0
688 2 2.4 18.494558854501093 25.21768682572701 20.571702086338753 0 -1 0
558 1 -1.2 18.118584994834865 26.763172701457286 20.818016036572786 0 -1 0
2095 1 -1.2 16.46346208426033 29.046540322158396 20.67575955509554 0 0 0
1579 1 -1.2 26.12505517409493 22.43080002532275 16.24749410887864 0 0 0
575 1 -1.2 25.89367721977027 29.43325200214315 18.437307396260064 0 -1 0
628 2 2.4 24.551653634253125 22.532776367876465 16.414689655779256 0 0 0
1217 1 -1.2 22.502828781505798 24.830553623464755 19.6478408775178 0 0 0
2086 1 -1.2 28.654210994400255 25.018501473573586 17.86839559639091 0 0 0
648 1 -1.2 29.06297473341928 22.56373044609272 19.592212679663707 0 -1 0
1243 1 -1.2 22.852107102945407 26.770562558030438 15.405135849480649 -1 0 0
1718 2 2.4 25.470238284136514 28.8615383086017 19.828439976327772 0 0 0
1317 1 -1.2 22.846456150937833 28.030905970014118 17.710090843414296 0 -1 0
687 2 2.4 22.89941472057621 24.261919753096702 18.239449281636347 0 0 0
210 1 -1.2 24.07663997244749 23.446772871267452 15.212479663143098 0 0 0
2152 2 2.4 28.45977276498602 26.34894764934149 18.695205775630964 0 0 0
1223 1 -1.2 26.777274321709307 25.701810210409153 15.269818363396578 0 0 0
1942 1 -1.2 27.700979952890552 28.11044132328273 15.605179653084974 0 -1 1
214 1 -1.2 27.27498793502087 26.981825305510878 17.842315767063386 0 -1 0
521 1 -1.2 28.809581391066523 23.002289024772324 16.279159713805498 -1 -1 0
723 2 2.4 26.72407962426802 27.012927885431935 16.3455998676823 -1 0 0
205 2 2.4 23.679758308251856 26.95002229106652 16.78816001459797 0 -1 0
1112 1 -1.2 25.184192564537632 27.320835364450705 16.43786290854149 -1 0 0
788 1 -1.2 23.958288004908553 23.121979402342756 17.77504837193495 0 0 0
1846 1 -1.2 23.535172179139156 25.551788101635143 17.558808133372658 0 -1 0
1989 1 -1.2 28.336468492498472 26.28354160548016 20.254846872389653 0 0 1
1542 1 -1.2 24.888958609656115 27.436254071903996 20.135188614967856 -1 0 1
606 1 -1.2 26.85801087363708 28.87616812991824 20.69502619424505 0 -1 0
2129 1 -1.2 2.6512245227857623 1.9705053517943818 20.806270810934276 1 1 0
1316 1 -1.2 5.333356506475623 6.17655222366344 21.090952042754225 0 0 0
1884 1 -1.2 3.061328966740696 4.512993157389505 21.678121947006865 0 0 0
1396 2 2.4 1.9938722770772797 3.3245563406304015 21.3840705700828 1 0 0
92 1 -1.2 1.5705400251586332 2.7921687448841968 22.954841527118106 0 0 -1
1657 2 2.4 2.091085342312817 2.540645716181613 24.446367116679248 0 1 0
1140 1 -1.2 2.995614413446552 3.751410866105698 24.842314544109446 1 1 0
1062 1 -1.2 5.0971900082722374 4.221201545742762 23.570357229995743 1 0 0
1405 2 2.4 4.127024441294276 4.872326564725618 24.665275471794565 0 0 0
762 1 -1.2 4.818862709815976 4.966126374985911 26.098948999542774 1 1 0
154 1 -1.2 3.5031896803351352 6.352964269515895 24.300954031099106 0 0 -1
1088 1 -1.2 5.413739346009694 1.765002420172917 23.157868204605624 0 0 0
2017 2 2.4 6.108661997818086 3.141856950530846 22.901486738634027 0 1 0
1693 2 2.4 2.144368528305728 7.174656644902679 24.613694176891116 0 0 0
2141 1 -1.2 6.662930960031215 3.355031186590934 21.35414124734483 0 1 0
1740 1 -1.2 2.545269256717301 1.087597597559253 24.645281773887607 0 0 0
1811 1 -1.2 7.1775879936742335 7.007498917963131 22.78556891599246 0 0 0
1934 2 2.4 6.3143246370626445 7.494395491658106 21.450575319153625 1 0 0
636 1 -1.2 1.6333441853655593 6.808338541417542 26.08583299018243 1 0 -1
1722 1 -1.2 5.53727398010948 1.2256810304837833 25.610504474565868 1 1 0
1757 1 -1.2 7.370431246448291 3.104242773680002 23.858428867950913 0 0 0
371 1 -1.2 1.0139009047165273 6.52491654086463 23.629067586952132 0 0 0
1875 2 2.4 5.398688229798671 1.5622784188191223 27.219693653164374 0 0 0
1390 1 -1.2 7.203766124125452 7.77518226316735 25.296716490310214 0 0 0
1977 1 -1.2 1.3114194809146191 2.457732284352197 27.349577891126394 1 0 0
1621 2 2.4 7.909760468291128 6.938424118866954 24.195698185845117 0 0 0
380 1 -1.2 8.002554177613403 5.368850024756012 24.64492007793082 0 1 -1
618 1 -1.2 9.720768028885079 6.833544543463555 20.90873792417002 1 0 0
873 1 -1.2 8.316318923950234 3.0403126727832306 26.293273034328013 0 0 0
1772 1 -1.2 8.969364952052858 4.411147297558314 21.561709403653023 1 0 1
901 2 2.4 10.26761439000481 5.360003863628115 21.335460066280245 1 0 0
1117 2 2.4 8.43973111904717 3.8129650599980653 24.857447698101073 0 0 0
786 1 -1.2 11.677879918849792 2.4695499092002455 23.259442361825243 1 1 -1
1441 2 2.4 11.437953094389352 3.9366136244696093 23.778694766359862 0 0 0
1136 1 -1.2 11.861616505502012 6.959194878726346 25.00676741569213 0 0 0
2057 1 -1.2 11.156147896338762 5.039536178156279 22.613210950794983 0 1 0
597 1 -1.2 10.015932519951908 3.885195752083982 24.595837021821584 0 0 -1
1479 2 2.4 12.916291913139643 5.907991488821647 25.553303454335175 0 0 0
1440 1 -1.2 12.552401579690757 4.586798762183507 24.693371028641995 1 1 0
515 1 -1.2 12.621774730595593 2.4778440700818436 26.401246515617203 0 0 -1
14 2 2.4 14.093375815722432 2.8608432473071956 25.92935844355763 0 0 -1
1410 1 -1.2 14.42627795221065 6.3295198427818 25.233007989679095 0 0 0
1464 1 -1.2 9.862942609015354 6.529574962050633 26.57533960102392 0 0 0
1535 1 -1.2 14.366176242143062 2.497082178074359 24.40703852147887 0 0 0
1208 1 -1.2 9.377869089313561 7.578705839899104 24.254685263387078 0 1 0
2018 2 2.4 10.432563995271076 7.475239168872979 25.44780530790875 0 0 0
251 1 -1.2 12.581982642043371 5.746946767382987 27.161879973456394 0 0 -1
686 2 2.4 14.916946353272031 1.680034555019509 23.22442375992374 0 1 -1
1311 2 2.4 11.145618036315959 0.9257312729358661 23.10295902357374 0 0 0
18 1 -1.2 14.87234420808325 4.262450254557111 26.227173332412946 0 0 0
1017 1 -1.2 9.618345628420661 0.8912204400853385 23.608223825535877 -1 0 0
1005 1 -1.2 15.096104441963444 2.0183454407602235 26.980262018632782 1 0 0
980 1 -1.2 15.123099473997948 2.212642465090809 21.75384682220594 0 0 0
923 1 -1.2 17.70418132128415 2.448380434010001 20.94090935577024 0 0 0
1866 1 -1.2 15.35776876601558 5.3673971796271305 21.391772630913916 0 0 0
1965 1 -1.2 15.991437177663919 4.593758329225093 24.008137922628606 0 0 1
1019 1 -1.2 16.34223682966817 6.880757459797913 23.41431211894288 0 0 0
975 2 2.4 16.347328605673113 5.437942399475979 22.680578566210887 0 0 0
1395 2 2.4 15.764432763759382 5.402585475859154 25.417455761472773 0 0 0
1924 2 2.4 19.113391008351563 6.050892186148842 21.630819182348983 0 0 0
620 1 -1.2 17.767840176173593 5.306457529433228 22.07462662619465 0 0 0
478 1 -1.2 20.15905102181718 2.107002854165138 21.88154216744205 0 0 0
554 2 2.4 21.120766041234397 1.403082917724375 22.887218839479434 0 0 -1
1843 1 -1.2 19.82798795866127 6.564389487676722 25.04516405410136 0 1 0
217 2 2.4 18.542547358279926 6.822147152773217 26.015132720854833 0 0 -1
1832 1 -1.2 20.21109448553485 5.700292819842013 22.75362474831613 0 1 0
789 1 -1.2 19.971375436128177 3.755811962185281 25.666373430612893 0 1 0
1880 1 -1.2 17.19361863073047 5.935566360201943 25.891946679591996 -1 0 0
256 2 2.4 21.11596102107913 6.168997232304799 24.061978730899433 0 1 -1
2105 1 -1.2 21.985208624794826 4.892727127718215 24.63443331924431 -1 1 0
364 2 2.4 21.532047824438198 3.4910074534183195 25.2049315798312 -1 1 -1
2127 2 2.4 18.929411340191823 2.5701298474900343 25.98785359474246 0 1 0
1628 1 -1.2 18.570577269010077 1.8676089258435356 24.574910970156218 0 0 0
2117 1 -1.2 17.599723549051323 2.784976352942846 26.85925304764981 0 1 0
1338 1 -1.2 19.890331352171234 1.48776132399494 26.637498562205348 0 0 0
2002 1 -1.2 21.460427525450527 2.5480962881941647 23.935472430426486 0 1 0
103 1 -1.2 18.79776525681225 7.617501072046709 21.616155713439 0 0 -1
1496 1 -1.2 22.034020960558056 7.152568312423462 26.431396704155166 0 0 0
671 1 -1.2 16.397508299729687 1.2125573327099222 23.54876256766866 0 0 -1
1001 1 -1.2 19.021241543938146 6.6757670505131 27.541595192851233 0 0 0
1841 1 -1.2 23.42805516222676 3.45434547088372 20.9333741267419 0 0 0
1447 1 -1.2 22.260562690051767 7.01373154536109 23.31876091268665 0 0 0
1732 2 2.4 29.26466347803354 6.417227196705388 27.177379666172367 -1 -1 0
2049 1 -1.2 22.482176966086517 2.8146975397106093 26.249023941263008 -1 1 0
2154 1 -1.2 22.76002674088524 5.896988293518392 20.983887585342018 0 1 0
120 1 -1.2 22.491413490791473 1.1794657016503092 22.080997391512803 0 0 -1
1392 1 -1.2 29.221013959254673 2.6222307341465925 24.894537763720635 -1 0 0
2137 2 2.4 28.80149243298914 1.8428716211524931 26.411461930415747 0 1 0
870 1 -1.2 26.909529217307547 2.900784136168027 23.95138731766689 -1 0 -1
1719 2 2.4 23.366744921912943 6.940337631101161 22.11430339834333 0 1 0
1840 2 2.4 23.752720889599587 2.0367023268138107 21.55358637654609 0 0 0
1686 1 -1.2 24.939834405837317 6.5937547136592025 22.25467842318062 0 1 0
885 1 -1.2 27.650726314801375 6.9991896500332915 21.784668848525527 0 0 -1
1733 1 -1.2 28.523617206556388 4.466795698272027 22.75967658665973 -1 0 0
1767 2 2.4 28.432724757474805 2.937688079950535 23.35074173540104 -1 0 0
2099 1 -1.2 27.211574959356327 6.104663617791276 24.081011014314747 -1 1 0
1768 2 2.4 28.3340677578871 6.025564180042023 22.97097290735446 -1 0 0
1106 2 2.4 26.539407777039067 6.1456928605756955 25.50939131692506 -1 0 -1
1972 2 2.4 25.656190821097685 1.9928483246161777 23.865891970154674 0 1 0
1650 1 -1.2 24.59814916255208 2.393528709022716 22.837279875024183 0 1 0
464 1 -1.2 28.22138708841021 1.6525289893707507 22.408888984026827 -1 0 0
798 1 -1.2 24.92991434994376 1.4992039443483178 25.1782784632652 -1 1 -1
249 1 -1.2 27.869507428176817 6.574847311951377 26.426228169713593 0 0 -1
1376 1 -1.2 26.052408267403706 4.754557264147614 26.131660443957223 0 0 0
838 1 -1.2 27.382159662186634 2.525724731756301 26.737303154948 0 1 0
76 2 2.4 26.143504137589275 7.511351397045931 21.651372622464873 -1 0 -1
681 1 -1.2 25.43316496329242 7.241604738859808 25.618092734046034 0 0 0
1729 2 2.4 26.273746009277154 3.631612803352975 27.22033793689532 -1 0 0
1785 1 -1.2 3.5173393524547985 14.11904297166951 21.038477428351726 1 -1 0
1413 1 -1.2 6.918352922698897 13.759292690837068 21.728770441126727 0 0 0
1838 2 2.4 6.61495242156084 12.155866103124692 21.750428538270548 1 0 0
1144 2 2.4 4.518256638993095 10.088838021938587 21.660066079805276 1 0 0
1271 1 -1.2 5.308272914072396 11.437779689627844 22.211498217918123 1 1 0
1819 1 -1.2 2.2508435901349397 8.716646675552054 24.42016822170807 1 0 0
1290 1 -1.2 5.469001819756835 8.817003954672574 21.65007479248936 1 0 0
1293 1 -1.2 3.2247598239318735 10.06916801086661 22.55971525270422 1 0 0
1038 1 -1.2 3.2797848526931834 10.98030434401518 24.97540351546634 1 0 0
2026 1 -1.2 4.993147533496732 11.820702452810247 26.68747271189479 0 0 0
1609 2 2.4 2.4043005701370355 10.236961150659111 23.927161452717037 1 0 0
710 2 2.4 4.2183154340080105 10.53159550536572 26.18312611300289 1 0 -1
6 1 -1.2 5.277670198055182 9.521580753516153 25.49603678023917 -1 0 -1
347 1 -1.2 1.1173856985231891 11.187447656591392 23.63076281300721 1 0 -1
1174 1 -1.2 2.134023702870552 13.6541092191572 23.00025264855257 0 0 0
2025 1 -1.2 6.655713506959793 13.921921171383916 25.30993540411716 0 0 0
1442 2 2.4 6.534079263671579 8.844915628419127 26.245489138914404 0 0 0
1367 1 -1.2 3.9785572785077656 14.334407179654022 26.387683812153856 1 -1 0
124 2 2.4 3.3342425361373986 14.630783793312785 22.58449083764025 1 0 0
571 1 -1.2 4.49259534189631 14.5556268429984 23.617876965225786 1 0 0
488 1 -1.2 7.579442551388498 10.04403906130624 26.694666891036366 1 0 0
1371 2 2.4 0.9146141430173549 12.661045506239772 22.981413048408434 0 0 0
1059 2 2.4 5.788864540353854 15.030236125998776 24.488000058842815 1 0 0
2103 2 2.4 4.41859533762048 13.16721398645007 27.393235482483945 0 0 0
1990 1 -1.2 3.3674707187898765 9.765157682098797 27.332823604428295 0 0 0
1450 1 -1.2 7.795172478839621 11.650320430854277 22.819711762037343 0 0 0
1706 2 2.4 8.108055162824666 13.723660696509231 25.960274052043733 1 0 0
1809 1 -1.2 8.145083544780029 12.689284103031715 27.13729808753338 0 0 0
2136 1 -1.2 14.187768990675904 8.269206047442125 22.94404733927916 0 1 -1
973 2 2.4 14.337664311670435 12.025108465779171 22.03770565060218 0 0 0
1497 1 -1.2 8.90204059972771 12.908642063162505 24.815157203360176 1 0 0
1110 1 -1.2 10.251700565950902 12.669291444824081 22.511108128915183 0 0 0
963 2 2.4 9.210162122611367 11.930789011373477 23.58957844003042 0 0 0
430 1 -1.2 10.098288369275675 10.82569591630673 24.232052784997386 1 0 -1
1103 1 -1.2 10.672010087217608 8.959063669230916 26.015805831963014 0 0 0
598 1 -1.2 12.051799991099234 8.971240043734527 21.643042310552307 0 0 0
1294 1 -1.2 12.365109378495891 9.678473636191463 24.36525162081372 1 1 0
470 2 2.4 11.185422993293574 10.311711812274025 25.315651574118547 0 0 0
1648 2 2.4 12.992433302181942 9.231530052409738 22.91988211911857 1 0 0
1523 1 -1.2 13.669158690550447 10.649736959909493 22.477411841043065 0 0 0
12 1 -1.2 14.002369724500463 12.401815331820115 25.95136588456732 0 0 -1
1769 1 -1.2 11.715759019545747 11.536269140694435 26.189379483092498 0 0 0
1538 2 2.4 10.50688443553401 14.239672247157326 22.205851118289523 0 0 0
262 1 -1.2 14.399612391874228 12.854287928977532 23.35972163361718 0 0 0
1672 2 2.4 12.800314227103497 12.505131374343343 26.98455169172324 0 0 0
11 1 -1.2 12.538228926557677 14.181427208977773 27.157252199959686 -1 -1 -1
306 1 -1.2 9.097907084119122 14.965131741993426 22.436451577963815 0 0 0
827 1 -1.2 13.78370150385939 9.471810457090498 27.35281725853974 0 1 0
181 2 2.4 14.934567801004517 13.097921881993875 24.859810422143347 1 0 -1
107 1 -1.2 14.954390995431194 14.646874069242989 25.154004370486184 -1 0 -1
1379 1 -1.2 8.866797682493882 15.090025793289787 26.207376371776185 -1 -1 0
1122 1 -1.2 11.526589118916114 14.952515198581214 23.18397000770922 0 0 0
692 1 -1.2 16.141181474965723 8.08019501780364 27.277949652215973 0 0 0
976 2 2.4 19.792386073473708 12.843385669675028 20.846584188506068 0 0 0
1068 1 -1.2 18.226085674980244 13.062411988845941 20.89913038127758 0 0 0
1549 2 2.4 15.27725554416032 9.321770755862717 26.598178421749783 0 0 0
431 1 -1.2 15.45404834448771 9.115614237897665 24.987530322301026 0 1 -1
362 2 2.4 15.69218754873592 8.420782503540885 23.552226839583934 -1 1 -1
953 1 -1.2 16.182888084449562 14.358050408815533 21.44625001585202 0 0 0
550 1 -1.2 15.79515367248587 11.817317379913883 21.43039916386763 0 0 0
1416 1 -1.2 16.730975697840236 9.139597090127054 22.48988295694281 0 0 0
1436 1 -1.2 20.730991511894235 9.332899160516972 25.304155409228258 0 0 0
1378 1 -1.2 18.35108836624249 8.346128641692339 25.491144231971013 -1 0 0
1216 2 2.4 18.24226701221973 9.14575879433233 21.859314301480843 0 0 0
175 1 -1.2 18.98892013721823 9.640202682509472 23.20733104218065 0 0 -1
67 1 -1.2 20.483328589872453 12.508115609108998 22.290559269067273 0 0 0
1861 2 2.4 19.22896470754058 9.631340885053381 24.825845626928718 0 0 0
860 1 -1.2 18.67787565997505 11.079004948568452 25.369220370834846 0 1 0
1673 1 -1.2 16.439361247542244 12.549720879921603 24.98971768157414 0 1 0
1816 2 2.4 17.897113406058537 12.45309758482361 25.7046133582487 0 0 0
641 1 -1.2 18.613882848902424 13.831364786011468 25.239826226132912 1 0 -1
1886 2 2.4 21.888338286448807 12.147669298337538 23.024220370144 0 0 0
971 1 -1.2 21.85282787655615 12.195239432184247 24.6558729105222 0 0 0
177 1 -1.2 17.639746972519724 12.517271385931306 27.322221286680744 0 0 0
1696 2 2.4 22.05785118088257 8.749926970300208 26.087165049942435 0 1 0
1568 1 -1.2 16.210458556079438 10.47258602733835 27.250286646931976 0 0 0
1709 1 -1.2 22.015361065721425 11.945844586477602 27.455646715480384 0 1 0
1701 1 -1.2 22.313150579312396 10.80056423511359 22.306668023479688 0 1 0
1679 1 -1.2 22.213378608245375 14.260108588649164 26.120332735413008 -1 1 0
1728 1 -1.2 29.250269666763444 12.988004246577901 26.56498067287991 0 0 0
2051 1 -1.2 29.34867335100665 12.238005905746705 21.4609311175147 -1 0 1
1720 2 2.4 22.49508448317408 12.680019073380048 26.072390410227378 0 1 1
1868 1 -1.2 23.34559534548912 8.400039255145828 21.638279304337473 0 0 1
2124 1 -1.2 28.509419227888102 13.238847451212296 24.00318660204057 -1 0 0
1799 1 -1.2 24.62975065018952 10.625146724779219 21.216196848545888 0 0 0
2101 2 2.4 28.10817378242964 13.28543249216061 25.536478531241467 -1 0 0
1063 1 -1.2 27.081521600191277 11.077185987090456 21.725084951463977 0 0 0
1346 2 2.4 23.158410535817936 9.915850893758346 21.207342758205286 0 0 0
1852 2 2.4 25.047323394299898 8.643052599939345 26.160672702457777 0 0 0
1373 1 -1.2 23.572877126262796 9.041122127251846 25.60548661328915 -1 0 0
1004 1 -1.2 26.01743585679041 9.885379645064742 25.845415198319174 0 0 0
1829 1 -1.2 22.948134680904726 13.18640704745036 22.566736273168093 0 0 0
1060 2 2.4 25.766917293352822 10.497217997413498 22.33522206247103 0 0 0
1556 1 -1.2 26.020723613669134 8.904577080697434 22.446824302437488 -1 0 0
574 1 -1.2 24.122060348707926 12.369623178791256 25.773011963926347 1 0 0
1739 1 -1.2 26.888308336796833 12.144458651358125 25.703355246831364 -1 0 0
964 2 2.4 25.404968614646407 12.272293115553754 24.86843917067256 0 0 0
1534 1 -1.2 28.625131150869684 10.06970486534782 26.33675299721825 -1 0 0
1554 1 -1.2 25.299674532613253 11.320080661882372 23.621919632968197 0 0 0
1399 1 -1.2 25.648518761576486 13.80266583115179 24.341976308309444 0 0 0
2151 2 2.4 27.27380049437436 10.698390012198383 26.507812598181882 0 1 0
1058 2 2.4 23.396802550967376 14.536396149435632 21.759145176937505 0 0 0
202 1 -1.2 27.51761620276455 14.698780154142145 26.03751212913664 0 0 -1
1498 1 -1.2 24.8415455316216 15.043150315837808 22.231422034309734 0 0 0
1622 2 2.4 7.557124381016225 15.199929576767573 22.07817524872674 0 0 0
1931 1 -1.2 7.667436490598947 16.35176460535638 20.96513746233991 1 -1 0
774 1 -1.2 6.611394268475763 22.04929396302418 20.945435544194567 1 0 0
839 1 -1.2 6.80373564847437 15.594345733613313 23.435127494338836 0 1 0
1662 1 -1.2 4.777953815503165 17.92317797947719 21.219751076981993 0 0 0
75 2 2.4 3.095074960356536 15.639647196257064 26.873911634287424 0 -1 -1
2082 1 -1.2 5.51143124771763 16.250854422967954 25.513446595129764 1 0 1
707 1 -1.2 4.734554322029725 17.778072697838404 23.88124067063705 0 0 -1
758 2 2.4 3.8747168302501245 17.749949700918634 22.522132039964557 1 0 0
1595 1 -1.2 2.9309567079912857 19.020912636150978 22.628199337699833 0 0 0
2068 2 2.4 3.650688693706104 19.973345760584827 26.563137131230018 1 0 0
356 1 -1.2 2.9782230239949663 20.062191773999796 25.001476945947026 1 0 0
207 2 2.4 5.408484785216581 17.821554076059467 25.379428323702733 1 0 -1
1830 1 -1.2 6.8203923993911815 18.511969063921068 25.11970548224178 1 0 0
1116 1 -1.2 2.5494657150376026 16.543236630898328 25.68442100368149 1 0 0
1576 2 2.4 2.521390955913053 20.31932732422617 23.511220520514875 1 0 0
452 1 -1.2 6.802281360215852 20.22071763340406 23.109543849982376 0 -1 0
2052 1 -1.2 4.698761329382577 18.71305668191907 26.473685388314077 0 0 0
1590 1 -1.2 3.2431229903107233 16.220238605131147 22.40331643373955 0 0 0
1601 1 -1.2 4.832321341979784 21.168126312998623 26.06979793196692 0 0 0
42 1 -1.2 3.3015911579062 21.67599197460247 23.051003713957797 0 -1 -1
460 2 2.4 6.757007864874323 21.766599509869746 22.543016164491906 0 -1 0
1708 2 2.4 1.1329598851878744 17.108126007646927 25.271377489467675 1 0 0
1949 1 -1.2 2.232886655309966 19.21148330874613 27.169866362300272 0 0 0
1275 2 2.4 7.757174969586242 19.331811350168387 24.22013434336185 0 0 0
2039 1 -1.2 0.9778433996780433 20.77534423934604 23.360598070937794 0 0 0
982 1 -1.2 29.39514149479506 18.61937366702055 25.006724631300138 0 0 0
1153 2 2.4 14.728539135808642 21.775851347795566 21.089485547824218 0 0 0
453 1 -1.2 14.581494059288705 20.16953418985062 21.078096168762805 -1 -1 0
1164 1 -1.2 9.557208881916983 18.321718257355883 20.95703535392625 -1 0 -1
1979 1 -1.2 8.554725476892031 20.462371134857843 25.086452065631637 0 0 0
1350 1 -1.2 13.669699981730883 17.85530065908055 21.27554553416139 1 -1 0
1025 1 -1.2 8.737317399027813 18.48985696094748 23.32521958686672 0 0 0
664 2 2.4 9.725792412038407 16.365122663810425 26.49675845447517 0 0 0
573 1 -1.2 10.61969396805302 16.667628034586127 25.19186398511238 1 0 0
1525 2 2.4 11.58619065731179 16.379495582643898 23.957146231313708 0 0 0
307 1 -1.2 13.082121102535366 16.479543194955347 24.474230966944596 0 0 -1
1759 1 -1.2 10.407908609608416 20.20091030693226 22.798439262750954 0 -1 0
1736 1 -1.2 11.080113615428614 17.46785352671891 22.85562398510828 0 0 0
1623 2 2.4 10.077594642937322 18.57746591376924 22.436606028581277 0 0 0
646 1 -1.2 12.502216821520669 19.730121495965367 26.121174033524486 0 1 -1
1827 2 2.4 13.5904169525161 20.198240459683397 24.95900379408543 0 0 0
920 1 -1.2 13.63437601971078 19.527694994148284 23.47338037292821 0 -1 0
1180 2 2.4 14.443073163986487 18.94692410681711 22.156587111733845 0 0 0
1299 2 2.4 14.617145477565543 16.089586769857313 24.573793790222776 0 0 0
215 1 -1.2 13.567959589183422 21.810152772973787 24.889583673098645 0 0 -1
853 2 2.4 9.006410628729192 21.354241879799147 26.30141798848411 1 0 0
1319 1 -1.2 10.500224100551693 21.180905913923393 26.807884056277594 0 -1 0
471 2 2.4 9.887853605827546 21.695352467465995 22.68646963930534 0 -1 0
2096 1 -1.2 8.833080223629782 17.48188827519851 27.27207089461912 0 0 0
2010 1 -1.2 8.281148956587618 22.001656222721586 22.753085445245386 1 0 0
1551 2 2.4 11.853303051865616 20.492824632752075 27.377882331429802 0 0 0
2058 1 -1.2 10.261851495018725 22.084942245029932 21.232150674718525 0 0 0
634 1 -1.2 14.99806710205134 19.718867598868044 25.57609045335389 1 0 0
1793 1 -1.2 10.962064018433878 16.119263206702158 27.57439837592305 1 0 0
1907 1 -1.2 15.251461630020472 16.17949586021698 23.109785747620588 0 0 0
1099 1 -1.2 20.140503681260252 15.340138274010634 23.5997131475531 -1 0 0
987 2 2.4 18.788415357312115 15.22950364502992 24.487542778716687 0 0 0
1510 1 -1.2 15.409830713611113 17.20758155785494 25.43296886943673 1 0 0
1053 1 -1.2 17.617821935377858 15.444188580867584 23.40902668623286 0 0 0
617 1 -1.2 17.110476899231724 16.687792666314536 21.05871239969129 0 0 0
1137 1 -1.2 18.599485132777 18.71233096693045 21.341490118599904 0 0 0
1215 2 2.4 16.483509187854715 15.78457873516768 22.19765646409485 0 0 0
1888 2 2.4 15.84508922267742 18.487861219368114 26.25482439534924 0 0 0
1046 2 2.4 21.41212371469451 16.322068729004283 23.335919975809247 0 0 0
2067 2 2.4 20.304034080036 18.812979267742556 21.732530937565205 0 0 0
562 1 -1.2 18.7574970025857 16.586259282466287 25.38609484817596 0 0 0
1562 2 2.4 17.549469809519014 19.129319876415394 22.621905896496088 0 0 0
1415 1 -1.2 16.018925347427704 18.69775514732552 22.457039895948387 0 0 0
272 1 -1.2 18.21954405967797 18.29901407963188 23.751672640076507 0 0 -1
1238 2 2.4 20.935236372515718 20.394789961826866 25.720843518636897 0 1 0
718 1 -1.2 19.953372469617147 19.158502971503772 25.56263570955123 0 0 0
1082 2 2.4 18.69937720461474 18.132415468048094 25.30115874183917 -1 0 0
1474 1 -1.2 17.453916083317655 18.660662049240873 26.202886776842792 -1 0 0
1922 2 2.4 20.972016790949414 21.55770990287208 23.05088602990853 0 0 0
1380 1 -1.2 20.579514026231145 21.522034493007666 24.656051787522863 -1 -1 0
1476 1 -1.2 17.553446581439637 20.626491959189362 23.15145920451559 0 0 0
1080 1 -1.2 20.258820299944606 20.181481681563806 22.605733779332475 1 -1 0
538 1 -1.2 20.77892369046301 17.562568032225517 22.619287372359913 0 0 0
990 1 -1.2 21.86661090385704 16.472625848227384 24.88269431056368 0 0 0
1300 2 2.4 16.890536179681302 22.029616057933136 23.42276869519652 0 0 0
369 1 -1.2 21.30071447138201 20.695369382968238 27.284613865446616 -1 0 -1
1091 1 -1.2 16.05178767724143 22.089281261383586 24.74972175783862 -1 0 0
1791 2 2.4 22.167889437741252 15.851361149031016 26.349981601420062 0 0 0
1642 1 -1.2 15.943872750694071 22.117699170958158 22.06986067847836 0 0 0
1877 1 -1.2 26.459638495974744 18.821201118108647 20.75273252454154 -1 0 1
367 1 -1.2 0.7088031084732478 16.3800928177695 23.9198339047188 0 1 -1
1833 1 -1.2 22.419475588969284 21.355585738991984 22.469473491619908 0 0 0
2011 1 -1.2 22.35659784528121 20.064152368053065 25.118442932877205 0 0 0
1580 1 -1.2 28.441261938635492 20.495436639073205 20.85532568731364 0 0 0
1865 1 -1.2 22.478898384272977 15.620384030459162 22.389134093895702 0 0 1
1454 2 2.4 25.714800120781604 15.235290108583818 23.613019019114528 -1 0 0
1689 1 -1.2 28.962607523095475 15.349067159048705 21.42984877493731 -1 1 0
74 2 2.4 23.248653626106275 21.25919019084962 21.114458205908836 -1 -1 -1
1375 1 -1.2 24.09877272254862 19.908525755247705 21.19203730026616 -1 -1 0
1635 2 2.4 24.955605229251233 18.503326950964464 21.292849591578207 0 0 0
1663 1 -1.2 27.147926106369642 15.777162585696727 23.187461959270262 -1 0 0
656 1 -1.2 28.825420523888198 16.82517131554393 26.410133031867165 -1 0 0
142 1 -1.2 25.164486331239292 18.212244063437552 22.843623164011053 0 -1 0
1431 2 2.4 28.56098817206599 16.313621598968403 22.65173059502379 0 0 0
1789 2 2.4 28.217075363562483 21.00119390293812 23.82253523128454 0 -1 0
1073 1 -1.2 27.874585963142557 20.644652468030884 25.378997082221684 0 0 0
1933 2 2.4 25.47694576890374 18.088365283436318 24.39291758756068 0 0 0
1270 1 -1.2 24.640220746394426 19.28389757620573 25.073190976259507 0 0 0
616 2 2.4 23.818703775779984 20.579202259687587 25.511083170705966 0 0 0
932 1 -1.2 28.432764015726928 17.76306561016738 21.916919434923464 0 0 0
1591 1 -1.2 27.30060300173994 19.986257952753142 22.972021735432858 -1 0 0
1585 2 2.4 28.059490815254428 19.128610741485776 25.935269464074644 -1 0 0
1263 2 2.4 27.829980495991915 19.20933110934735 21.58749806180353 0 0 0
1710 1 -1.2 26.876542057295065 18.286050001692697 25.109127343544 0 1 0
1817 1 -1.2 25.165115284947294 16.493065813870427 24.53498375572473 -1 0 0
250 1 -1.2 23.612110946141836 16.38206774184266 26.895337858103115 0 0 -1
712 2 2.4 27.713405044144373 15.887231732419417 27.04520313280635 0 0 0
1943 1 -1.2 23.986718752985286 22.089185489170784 24.939675590006043 0 0 0
1064 1 -1.2 23.820918274167415 20.732534577776047 27.099713642269574 0 0 0
1845 1 -1.2 26.290377331213527 16.637446556928083 27.276066220871062 0 0 0
1938 1 -1.2 5.5896241965230775 22.56571702129557 23.30265533547268 1 -1 1
715 1 -1.2 4.16988964373399 26.14791485179033 21.116404156690184 1 0 0
1048 2 2.4 5.693749036173052 29.341585911124294 24.15065479542819 0 -1 0
625 2 2.4 2.280407834826195 29.234711209892637 20.9194307493458 1 -1 0
1547 1 -1.2 2.578944610480438 28.674279915866272 22.40354305160823 0 -1 0
1763 1 -1.2 7.127148004398876 28.8412253306206 23.956651582480227 0 -1 0
266 2 2.4 2.9220049156110477 25.26574721687539 21.645078958343866 1 -1 -1
1608 1 -1.2 1.554472611660339 25.987773975328913 21.969214007713806 0 0 0
1406 2 2.4 4.126015557756416 22.907945342895566 23.46306200478981 0 0 0
1149 1 -1.2 1.6956811589117904 22.715074448251002 26.70866731697019 1 0 0
1123 1 -1.2 4.426721272988788 28.344744792465182 24.01616673288172 1 -1 -1
1460 1 -1.2 6.193792116574974 23.583285113695048 25.96852586825379 0 0 0
36 1 -1.2 3.54817548443148 24.34460438120024 22.845287383312638 0 -1 -1
1612 2 2.4 2.8589354172200436 28.48665652878628 23.92924434199805 1 0 0
438 1 -1.2 2.0205865833459056 27.31743119800798 24.645054341646006 0 -1 0
2006 2 2.4 2.2841062675007944 23.768647556716715 25.65432911433937 1 0 0
1553 1 -1.2 3.7373999078813975 23.23557042496593 25.19153650171523 0 0 0
1228 2 2.4 1.8567692004643417 26.7541515174619 26.134419204850243 0 0 0
2024 1 -1.2 2.3916304453620185 25.242950775106255 26.22580617978012 0 0 0
62 2 2.4 4.907533207169273 22.68949159903765 26.313565184182373 1 -1 -1
523 1 -1.2 1.1811392755147474 23.90419295939283 24.45597278397438 0 -1 0
928 2 2.4 7.545860242806535 23.9730053252516 26.670811329942428 1 0 0
391 1 -1.2 2.889707752081941 27.74790798580408 26.980549398640914 0 0 -1
2093 1 -1.2 13.472678238262777 27.211412521314504 20.751275776849717 0 0 0
276 1 -1.2 8.02888635342907 25.459899501693634 26.372928273561108 0 0 -1
1090 1 -1.2 13.42206900088189 22.447288977215287 21.652264640988477 -1 0 0
1477 2 2.4 14.761209752500285 26.181124207194276 20.81402994842249 0 0 0
2044 2 2.4 11.911125355796019 27.65417973595969 20.88589968492916 0 0 1
1305 1 -1.2 10.572459586507112 22.6404816238238 23.828790869569847 -1 -1 0
1486 1 -1.2 13.911750278350272 24.78390987135022 20.82820788400029 0 0 0
809 1 -1.2 8.686907368923556 22.91352099697303 26.177738034497537 0 0 0
893 1 -1.2 14.08446850067289 29.13821422001401 23.22995910810024 -1 -1 0
1788 1 -1.2 11.493557571858325 29.077133305711303 21.590797544492222 0 -1 0
931 1 -1.2 10.278408157722405 25.22247969470118 24.068774502498496 1 -1 0
1963 1 -1.2 9.044688757142133 25.08121068475292 21.875392646509937 0 0 1
1022 2 2.4 9.884429494466085 26.07457871350124 22.805218704711717 0 -1 0
1264 2 2.4 11.279560621081183 23.976679916741613 24.20103575276936 0 0 0
941 1 -1.2 9.073616636253533 27.379911588459734 23.172184737987934 0 -1 0
191 1 -1.2 11.87796317655098 28.681708968419446 24.07437137172406 0 -1 -1
1177 2 2.4 8.658575604013073 28.551621505247304 24.151471359709202 0 0 0
1859 1 -1.2 8.895388798257747 27.860946069512426 25.59979055433413 0 -1 0
1356 1 -1.2 11.106242754382789 26.711330975245 21.970809208014334 0 -1 0
400 2 2.4 13.389051742841959 28.12849540969423 24.229692740206644 0 0 0
1383 2 2.4 12.790620590442797 23.885052386856263 21.415029539344374 0 -1 0
2023 1 -1.2 12.182465473995894 24.22688615503563 22.847290715157357 0 0 1
1800 1 -1.2 12.017946690351119 24.24248506723488 25.570012678251373 1 -1 0
1461 1 -1.2 13.952904134900178 28.364815573375445 25.71668645844514 0 0 0
1411 1 -1.2 13.811381093835632 26.61186640014086 23.97873171946696 0 0 0
2054 2 2.4 11.81984779629241 25.19428615429643 26.871214851864618 1 0 0
1273 2 2.4 14.741722203142928 22.900896361202232 25.241047410477933 0 0 0
2139 2 2.4 9.037992801645311 26.73072037943745 26.729630232997202 0 0 0
2122 1 -1.2 10.536177068099922 26.109321024705718 26.756649465966074 0 0 0
1246 1 -1.2 14.813304737878479 23.19540541918539 26.810624395926073 -1 0 0
2003 1 -1.2 14.819869826423865 24.172432843199914 24.284237437820416 0 0 0
2043 2 2.4 13.364385766412457 27.91810269014716 27.164823054811187 0 0 0
730 1 -1.2 13.048444703167622 26.348258904408553 27.047847153211773 -1 -1 0
462 1 -1.2 12.039173274075099 28.90710138150237 27.352039762273012 0 -1 -1
830 2 2.4 15.11368573113807 25.629092675273935 23.824129434720664 0 0 -1
446 2 2.4 17.929887763007 28.314338241046382 21.046088717355218 0 -1 0
1212 1 -1.2 15.446009450225437 26.003105058964287 22.280494056934632 0 0 0
1031 1 -1.2 20.37339539267253 22.830592116616387 22.436292515802013 0 0 0
781 2 2.4 17.8054956474299 29.42690128347048 23.92345738118962 0 -1 -1
1505 1 -1.2 20.739382590500117 28.93548260679963 23.771386552900985 0 -1 0
1484 1 -1.2 18.106002835826995 23.005610985977796 23.663243992658394 0 0 0
1764 1 -1.2 18.629972706142116 26.03545271085724 25.8718659045963 0 0 0
612 1 -1.2 17.596306565018185 28.36645404354504 25.1051339542168 0 -1 -1
559 1 -1.2 18.214149647861287 28.6893758589589 22.572343166856815 0 -1 0
1552 2 2.4 19.90177266405634 25.06201565687767 25.853390913213413 0 0 0
1974 1 -1.2 18.497962267975716 24.648109592194306 22.074966350058297 0 0 1
1394 2 2.4 19.381873061913534 23.88239265236649 23.10222678599524 0 0 0
1020 1 -1.2 20.506675129228878 27.97035488067307 26.199499606748105 0 -1 0
1973 1 -1.2 16.258945978343068 26.224411151771893 24.77675849983178 0 -1 0
60 1 -1.2 19.933926341888323 24.699492704181825 24.329384011529477 0 -1 -1
844 2 2.4 17.294081493388994 26.947669944462895 25.738338794013117 0 0 0
1694 2 2.4 21.415211759165267 28.000100904115744 24.890401119510205 0 0 0
1267 1 -1.2 21.29801492870947 25.405038349967167 26.583558613346472 0 0 0
77 1 -1.2 21.225913243122466 25.589082951212884 21.990624121681325 0 0 -1
131 1 -1.2 19.39480896119347 23.842715990709863 26.80275549851372 0 -1 -1
344 1 -1.2 21.899759908884764 26.706506816575427 24.165484528556274 0 0 -1
419 1 -1.2 16.645723024682674 26.872076174220055 27.25733918479406 0 0 -1
339 2 2.4 20.126954678813142 28.950617931024965 27.40586391117536 0 0 -1
657 1 -1.2 25.518595667188855 24.889420825379865 20.89804775537961 -1 0 0
1296 1 -1.2 26.833929785257755 22.64611602653756 20.949773570185265 0 0 0
792 1 -1.2 24.29784449966016 22.4741968701656 21.01856971953722 0 0 0
1778 2 2.4 22.37090641246043 25.667987279186914 23.100018717902167 0 -1 0
1795 1 -1.2 28.73553697210669 29.160934771976176 26.12539024666906 0 -1 0
274 1 -1.2 26.204361390997125 29.359436120939463 23.37506289992328 0 -1 0
1913 1 -1.2 27.928280186490145 22.574153088410476 23.64990119790728 0 0 0
1571 1 -1.2 22.69393841502685 28.825551846535532 25.48333111520862 0 0 0
541 2 2.4 24.232611343747667 29.035311584944566 25.812860881801868 0 -1 0
1619 1 -1.2 29.144972743819487 26.786122782247112 26.780764784631895 -1 0 0
493 2 2.4 28.127393411044235 29.162478302673616 21.587019983623204 0 -1 0
1278 1 -1.2 22.865355041797628 24.24905148167772 23.633474543961682 0 0 0
64 2 2.4 25.530226689936576 23.39418956582028 21.471287438020894 0 -1 0
97 2 2.4 24.21391048140955 23.577228481448483 24.29834948709379 0 0 -1
296 1 -1.2 25.21949720321499 23.526128355421005 23.041469312680295 -1 0 0
1258 1 -1.2 24.866561681862837 24.689119138973346 25.3139537244571 0 0 0
925 2 2.4 28.71030666765961 26.310312174738485 21.889718054681225 0 -1 0
1503 2 2.4 26.219629654302214 24.833968960843414 26.191920205259937 0 0 0
1613 1 -1.2 28.38617759087553 27.767259330498756 22.319583266332973 -1 -1 0
1998 1 -1.2 23.6008596607419 26.24387899410446 22.130105904639382 0 0 0
1644 1 -1.2 28.14152279291001 25.072684633496134 22.708779138466586 0 0 0
1599 2 2.4 28.350088029679167 24.09094117451119 23.955961331685703 -1 0 0
392 1 -1.2 24.894179309678822 27.846793503244417 24.827960797204863 -1 0 -1
496 2 2.4 27.734468701318473 27.568397150399424 26.52808460111541 0 -1 0
847 1 -1.2 25.88670716538545 26.99091437827989 22.508315198071973 0 0 0
1359 2 2.4 25.01667533210573 26.365620607036686 21.3250436609361 0 -1 0
79 1 -1.2 27.259744143792748 27.547101341341957 24.908799820294508 -1 -1 0
1034 2 2.4 26.149291947862416 27.797474164253355 23.83825423837986 0 0 0
2094 1 -1.2 27.515774393306152 24.583038694046582 25.20034704120691 -1 0 0
2040 1 -1.2 26.622818905974793 26.20321852157221 26.862910945041634 -1 0 0
95 1 -1.2 26.04892533428253 23.74074461470237 27.276251675615264 -1 -1 -1
2159 1 -1.2 24.629281674086375 29.052808847455253 27.36464356468762 0 0 0
2071 1 -1.2 5.619927768682233 3.104624694941677 27.56185354100165 0 1 0
1856 1 -1.2 0.8825353745369882 4.924722307529916 27.62464204680212 1 0 0
902 2 2.4 4.864301146127447 4.5151496265767666 27.64232549281687 0 0 0
1544 1 -1.2 3.970845566404859 1.1508627523640804 27.75906610038923 0 1 0
1954 1 -1.2 3.997008652099578 5.700712116021984 33.17377400603338 0 0 0
1704 1 -1.2 3.350014948398741 4.187953807436972 28.132016474339704 0 1 0
2157 1 -1.2 4.68323789246528 3.5415336791383507 31.786053167790648 1 0 0
426 1 -1.2 4.5097281331262264 5.905550390795027 30.707092388389565 1 1 -1
1021 2 2.4 4.952199091802133 5.082403688058949 32.01265976207665 0 0 0
703 1 -1.2 6.513524654603074 5.166633970547244 32.22510604902408 1 0 -1
1898 2 2.4 1.781023239923265 3.7100188410736696 28.22658543809406 0 0 0
1813 2 2.4 6.416697134525147 7.0263675111293455 28.624614761579544 0 0 0
1509 1 -1.2 5.927026885441828 1.6024519228070107 30.42007999681067 0 0 0
1425 1 -1.2 2.0758127156451778 5.646069436593026 30.323704220727457 1 0 0
1762 1 -1.2 5.658306829960368 5.6642695558128615 28.38313756642455 0 0 0
1502 2 2.4 3.250585494591675 6.736881713952228 30.26425459564754 1 0 0
21 1 -1.2 1.4695746301274384 3.3897766023059748 29.793802300503078 0 0 0
1500 1 -1.2 3.2404020129796693 1.5503539623116223 31.015083608054162 1 0 0
1573 2 2.4 4.709673229782658 1.9241908625530075 31.431921428225674 1 0 0
1707 2 2.4 7.1843760805963095 1.3212315946494508 29.494347867831802 1 1 0
1656 1 -1.2 1.0667466244596544 4.082491755789844 32.47976346143125 1 1 0
106 1 -1.2 3.4371256358306255 7.647585931538242 28.916471516626046 1 0 -1
2 2 2.4 1.0701641499400683 4.511923092943936 30.938298595373183 0 0 -1
473 1 -1.2 4.944848668485064 1.060983801051648 32.76475698865036 1 0 0
1944 1 -1.2 6.664019448235403 7.788778240953029 30.046859792565385 1 0 0
1326 1 -1.2 1.1019790726292735 7.1305068943073975 33.419461657926526 0 0 0
1914 1 -1.2 6.542035547195948 0.8885875089181516 28.08587878658886 0 1 0
1958 2 2.4 11.786392167910657 1.6617328247192062 27.557863790184015 0 1 0
684 1 -1.2 7.969967901064106 6.721306592672559 28.16324478008896 0 0 -1
872 1 -1.2 10.219288397700817 2.0108544634421155 27.599462931036367 0 0 0
1024 2 2.4 8.108213953466372 5.113653010028432 32.1361468508191 0 0 0
921 1 -1.2 8.10590314080977 2.486240794721799 29.022500771463637 1 0 0
313 2 2.4 8.910135669328447 2.9597905862524474 27.819582399820842 0 1 -1
630 1 -1.2 8.597620864410931 5.462254460854583 33.6281255401279 1 0 -1
1115 1 -1.2 10.04741633583904 1.8342423435600363 33.074597505269146 0 0 0
894 1 -1.2 8.852910328507237 3.746618259831744 31.742749836553116 0 0 0
1702 1 -1.2 8.73358284142061 6.170375339282706 31.091244141400242 0 1 0
1328 1 -1.2 11.239389697196824 4.33438398979947 32.2242001565332 0 0 0
520 2 2.4 9.374549648989479 6.047861325635339 27.962789350673766 0 0 0
55 1 -1.2 9.478547085177798 4.46676602329571 28.05289017963123 0 0 -1
1618 1 -1.2 12.52240938510225 2.172694862751431 28.889190336528443 0 1 0
889 2 2.4 12.91678560474828 6.09551178617037 28.6931496300859 0 0 0
924 1 -1.2 10.227393076439329 6.628335956067049 29.180926716758076 0 0 0
147 2 2.4 10.217906970351843 3.0309746187846582 32.025810740314895 0 1 -1
1921 2 2.4 12.0295284224239 5.511239095781901 31.605929799594072 1 0 0
94 1 -1.2 12.431535452795137 5.30546727311384 30.022588186418197 0 0 -1
46 1 -1.2 11.07097083775641 6.796944291937722 31.58258819815422 0 0 -1
119 1 -1.2 11.126681945118019 2.2591473340054518 31.02579494366977 0 0 -1
1365 1 -1.2 13.853842978047238 2.404368187543704 31.24266561399621 0 0 0
1491 2 2.4 9.836190711713414 7.174539638519072 30.59991545289153 0 1 0
1574 2 2.4 12.543300591230114 1.8037657634297632 30.441226607940127 0 1 0
1999 1 -1.2 13.400058524565878 5.881529719880147 32.29008955729185 0 1 0
151 1 -1.2 14.504257129514476 5.845066923251421 28.7126413180294 -1 0 -1
1077 1 -1.2 14.536106160757127 3.7126465822706995 33.443418791217574 0 1 0
1167 2 2.4 14.881444352393109 6.353726003401168 32.04815559369341 0 1 -1
744 1 -1.2 12.753037262579971 7.654247641708426 28.910951286724593 0 0 -1
666 1 -1.2 14.789692055885777 7.874168262666739 31.626162167967436 0 0 -1
15 2 2.4 15.030141811912621 2.5339911163931186 32.329835734071 0 0 -1
750 1 -1.2 17.92289415747479 2.689033938560624 0.8323323108010422 0 1 0
1712 1 -1.2 15.169871003192752 1.0935151968109567 33.00511837748744 0 1 0
1850 2 2.4 16.31222074507179 2.560382719196456 27.808273630877608 0 0 0
564 1 -1.2 17.895225301901835 4.920353192524626 33.251686000446284 0 0 -1
201 1 -1.2 15.64458966744062 5.5676300792071505 30.887451280941395 0 1 -1
1606 1 -1.2 15.62216952731671 6.025491430884831 33.46791488615601 0 1 0
820 2 2.4 17.28490208164709 6.3362321899626295 33.66962667163595 0 1 -1
797 1 -1.2 17.02467233569541 6.35841657303251 28.958650550148924 -1 1 -1
1797 1 -1.2 16.195044313973582 3.879852973992818 28.720634035484 0 0 0
183 2 2.4 15.949742863282879 5.343680616332087 29.297706503329536 0 1 -1
1685 1 -1.2 19.3102892465072 6.860116263030656 30.462252543128567 0 1 0
1982 2 2.4 17.954669777315413 3.3469472175356487 32.696953542770544 0 0 0
826 1 -1.2 16.543040163275265 3.007262356229715 31.94930280319861 0 1 -1
783 2 2.4 19.812090480304466 3.4694138858619086 30.193897344016758 0 1 -1
31 1 -1.2 21.14830351837063 6.47304777247941 28.814976316382655 0 0 -1
1600 2 2.4 19.596705485401348 6.256743683692302 29.022465768138254 -1 1 0
353 1 -1.2 19.093229769878008 3.362707315142097 31.61466835787792 0 1 -1
68 1 -1.2 19.35720843818437 4.735935199436875 29.28690500554729 0 0 -1
672 1 -1.2 21.34984706724334 3.847654519849073 30.50356099099393 0 1 -1
2145 1 -1.2 16.769448450557707 1.401761878739919 28.855658269066947 0 1 0
957 1 -1.2 19.223432204570205 2.184317303067957 29.301110623347 -1 0 -1
825 1 -1.2 21.1350062506486 1.057827054043654 30.775856827792772 0 1 -1
1602 1 -1.2 17.504562068937602 7.368740488618861 32.39593841101592 0 1 0
286 1 -1.2 19.859603604993985 7.2753433550693005 33.1161269111202 0 0 -1
2032 2 2.4 22.2115115737824 1.0609223534885666 29.56314277035094 0 1 0
2116 2 2.4 18.165179250982003 0.975082259745861 29.34239752431301 0 1 0
399 2 2.4 18.967795464800645 7.716112690153449 31.775208611694307 0 1 -1
101 1 -1.2 22.253483026623023 3.8010824462403416 32.82363778188303 0 1 -1
50 2 2.4 17.103703658544006 7.903279090409621 28.541597517269906 0 0 -1
206 2 2.4 22.403967959424865 6.292060180495709 27.775772567663648 0 0 -1
1445 1 -1.2 29.245626690480293 7.2580482668372674 28.494964922200513 -1 0 0
1230 1 -1.2 24.782362947631423 3.2331996856965923 27.659022280187912 -1 1 -1
1344 1 -1.2 26.0111341029378 4.657782144470671 33.84869676085864 -1 0 0
475 1 -1.2 22.6143959157585 4.713561040766223 27.561747001287973 0 0 -1
831 2 2.4 23.235113719660944 3.2089358189244104 27.5462474303259 0 1 -1
1981 2 2.4 25.92460383260324 6.286062006636456 33.79958395363999 0 0 0
906 1 -1.2 22.612379353492283 2.395623924027732 28.746277765382665 0 0 -1
845 1 -1.2 27.26895637907414 7.051379673373716 33.1612781447481 0 1 -1
481 2 2.4 22.743898276274358 3.894881687734651 31.278215000095067 0 0 -1
492 1 -1.2 23.268944909614962 5.430033769459411 31.084732001292867 0 0 -1
260 1 -1.2 23.88059806468443 6.7375773454143095 28.24482643950469 0 0 -1
89 1 -1.2 24.764838652870118 6.585504159369731 32.777177067827914 0 0 -1
1815 2 2.4 23.768881147057517 6.916974044113304 31.528043656147176 0 0 0
1584 1 -1.2 26.99489473036431 4.207047165648946 28.516381859618434 0 1 0
427 1 -1.2 23.824829800576758 2.7197490913690734 31.05991157462024 0 1 -1
43 1 -1.2 28.24848403292442 4.954582867765601 30.587112098610834 0 0 -1
484 2 2.4 26.88003136398494 5.074236031918218 29.814421331307436 0 0 -1
305 1 -1.2 26.177222502917836 6.400309758586549 29.397555678830376 -1 0 -1
410 2 2.4 25.421007116903382 2.5050014476622966 30.671833235600065 0 1 -1
936 1 -1.2 26.616066006658006 1.966000442174686 31.671517519574635 0 0 0
1446 1 -1.2 25.887401169120885 4.067624373637404 30.565737567113374 -1 -1 0
1361 1 -1.2 25.7829070341859 1.3273586550966274 29.475382631721374 0 0 0
1348 2 2.4 25.106948697956835 7.522230911465419 28.952315379742352 0 0 0
1084 2 2.4 28.62832666212529 7.800172852224116 32.669221646772584 -1 0 0
1487 1 -1.2 24.426054933294008 7.81166238448162 30.361276982377035 0 0 0
1330 1 -1.2 22.589854498582355 7.814770606759332 32.12478762140136 0 0 -1
1448 1 -1.2 29.150867183915686 0.8410879867862517 30.88527683550867 -1 0 0
1925 1 -1.2 28.993933773585628 7.768454247312509 31.05101309115002 0 0 0
128 1 -1.2 28.23717038374349 29.458069721659527 33.20878344897808 0 -1 -1
423 2 2.4 27.729392147313252 0.7789966215280179 31.73603199949654 0 1 -1
1916 1 -1.2 6.1513813075484665 14.862753467707385 0.8756081521765964 0 0 1
1928 1 -1.2 6.053786930318583 8.113760281581772 27.546881950981717 1 0 0
425 1 -1.2 3.0724252994383656 7.932799308943384 31.33163419128472 1 1 -1
545 1 -1.2 1.8631594206039275 14.803153861285955 27.493563444124693 1 -1 0
1219 1 -1.2 2.926811451841856 12.586408347229183 27.806023314089494 1 0 0
480 1 -1.2 3.47003735078428 8.198008364163965 33.83107512275156 0 0 -1
1671 2 2.4 1.4967489176733717 13.272052753006284 27.837444256677077 0 0 0
1475 1 -1.2 5.362558378045887 8.353297364148885 32.20837111684128 0 0 0
1864 2 2.4 6.771880275961407 8.594728458043623 31.40934772951993 1 0 0
1485 1 -1.2 5.12337558523116 13.912333206367034 28.583677862618018 0 0 0
1540 2 2.4 3.9116122093287067 11.373534260002458 33.662680993722915 0 0 0
1826 2 2.4 3.7914355083772966 8.774807236099372 32.43117377262565 0 0 0
1692 1 -1.2 3.594776632983242 10.342813559649194 32.43747607101861 0 1 0
983 1 -1.2 3.585183563715603 12.85915251115136 33.16955407709808 0 -1 0
1781 1 -1.2 3.4667988605850506 14.170304674679711 30.849727295329235 1 0 0
1472 1 -1.2 4.436797735912388 9.981935786488325 29.638230170198657 0 0 0
1321 2 2.4 3.228332632542899 9.252488436221292 28.840327074654795 0 -1 0
1045 2 2.4 5.0133782179444255 14.139677386702578 30.235739239241816 1 0 0
510 1 -1.2 1.6906019221620316 9.459443810485032 29.382295181526317 0 0 -1
1754 2 2.4 2.702639248733523 13.890925417822626 32.23531724078153 0 0 0
1184 1 -1.2 5.149852834154386 12.42083709864842 30.483280701406144 0 0 0
1634 2 2.4 5.678342587724252 11.005256542477028 30.037382554559453 0 0 0
1915 1 -1.2 6.647409104988831 10.188028878647472 31.055376438038532 0 0 0
1818 1 -1.2 6.549911538055379 11.17032590706227 28.701744858854102 0 -1 0
908 1 -1.2 1.4533188147657103 13.011921589467391 31.748899058596354 1 0 0
2038 1 -1.2 5.883617080249706 14.442200802714941 31.660446573988835 0 0 0
1878 1 -1.2 7.800330274553424 8.495144453641633 32.5741252194268 0 0 0
732 1 -1.2 0.8757139344784134 12.981742901813849 29.263462230489015 0 0 -1
1432 2 2.4 7.811317322391457 11.248705717563507 27.754751547234807 1 0 0
1902 1 -1.2 2.1309305889216237 15.165141888484156 33.16744894607663 0 0 -1
1854 1 -1.2 12.154206838226635 8.802419989277626 33.99435144610278 1 0 0
1681 2 2.4 8.50334070304143 9.090672357718645 33.83674784659611 0 1 0
1079 1 -1.2 14.366015072504 10.544616257872013 33.33403276280285 0 0 0
1169 1 -1.2 9.526576890243204 12.768185605506051 33.55627611339434 0 0 0
1848 1 -1.2 9.559112285097186 10.285551261541915 33.34538248851144 1 0 0
1910 2 2.4 12.966565313125441 9.25017158087308 28.785229111183888 0 0 0
1013 1 -1.2 11.490739507229705 9.842995223260452 29.094401477135715 0 0 0
284 1 -1.2 9.064012138501875 10.770462611439521 28.711234277386 1 0 -1
974 2 2.4 10.084769512655063 10.200818114333263 29.77776006082402 0 0 0
1333 2 2.4 13.017369047683577 12.699154952818546 32.54761301160599 0 0 0
1980 1 -1.2 10.171606777576201 11.250339034298012 31.05103937031682 0 0 0
1384 2 2.4 10.263237152552446 11.550340659107341 32.66248660380891 0 0 0
1386 1 -1.2 11.852282187528395 11.658976321221877 32.88962290683842 0 0 0
1895 1 -1.2 13.825392740375781 12.332449096941833 31.198202186999936 0 1 0
1006 1 -1.2 9.590843674000325 8.776240754283696 30.379416337726173 0 0 0
1905 1 -1.2 12.102283726273258 13.924819820988189 31.954000961590005 -1 0 0
642 1 -1.2 14.024119991425703 13.594608735357614 33.45684866225945 0 0 -1
1627 1 -1.2 13.0706352303739 12.170984646599658 28.497818969729927 0 1 0
1015 1 -1.2 14.039692761799339 9.722085794158069 29.926839545393804 -1 1 0
2031 2 2.4 14.120504877951532 12.545395451939687 29.664208350861372 0 0 0
44 1 -1.2 14.47926089220531 14.1582321752142 29.492856132487866 0 0 -1
1988 1 -1.2 11.789192830908947 14.942168306188535 29.62625922321938 0 0 0
1010 2 2.4 14.813966856420684 14.98522687681452 33.33721714041896 -1 0 0
1382 2 2.4 11.483948722781015 15.107974426098764 31.19841997028111 0 0 0
1968 1 -1.2 15.145988912398495 14.922069582308596 31.792363532143682 0 0 0
1851 2 2.4 15.307365189499828 9.188186900369926 30.798547336966436 0 0 0
1937 1 -1.2 16.26987429174222 8.54580333526985 29.69967021945847 0 0 0
27 2 2.4 15.94356035162517 10.820388558346515 33.13424995829752 0 0 -1
1640 1 -1.2 15.485794913052386 11.95775310356548 29.136954927576213 0 1 0
377 1 -1.2 19.382507866842584 11.561899917074163 32.956581122400785 0 1 -1
601 2 2.4 18.25052406781095 12.712114427938037 33.09731626171666 0 0 -1
1870 1 -1.2 20.506069675997203 10.399843392172818 29.277491329442327 0 0 0
1424 1 -1.2 16.732812338666037 12.265777506287108 33.141894199198 0 -1 0
199 1 -1.2 16.070565381132425 10.146007766813476 31.711453945276165 0 0 -1
1522 1 -1.2 18.49814358151228 8.775971616288164 28.641567244409256 -1 0 0
333 1 -1.2 19.10446575886469 9.202892726279694 31.139802506577823 0 1 -1
99 2 2.4 19.058507825778843 9.91230879615805 29.671842653803267 0 0 -1
1723 1 -1.2 17.98176372053847 11.121544988505056 29.429992371621335 0 0 0
195 2 2.4 16.82386572959604 11.595342276625287 28.390421332643303 0 0 -1
1752 1 -1.2 18.534783793046657 13.689870210527502 31.777558376398133 0 0 0
2015 1 -1.2 21.287128231746035 12.880326660776781 31.78517301945691 0 1 0
721 2 2.4 20.927025886205588 11.708212601754065 32.8230423298775 -1 0 -1
2148 1 -1.2 21.589514610256412 10.286158264938658 32.61105286668229 0 1 0
1044 1 -1.2 17.079083245448693 14.655076789959997 29.96193467553221 0 0 0
361 2 2.4 21.87347932723811 10.69521759990276 28.51073781756632 -1 1 -1
1463 1 -1.2 22.006691529121447 9.451991892409902 27.53592345897753 0 0 0
1036 2 2.4 15.594954050858227 15.103698788350796 30.23246592704566 0 0 0
1779 2 2.4 22.14373752621208 14.263390364743877 31.743486732567913 0 0 0
1154 2 2.4 27.55436362871492 13.567582447805817 34.03426899608143 -1 0 -1
1821 1 -1.2 28.533708137717095 14.816597120752792 33.955610648450396 -1 0 0
241 2 2.4 22.392067836052764 8.988144804443913 33.139363553367545 0 0 -1
196 2 2.4 29.220117001133715 8.386513382665978 29.585994436236852 0 0 -1
861 1 -1.2 23.841884611958186 9.511587399391711 33.66607737958383 0 0 -1
1643 1 -1.2 26.22965666062772 10.511453486195336 33.63456706741736 0 0 0
875 1 -1.2 28.038174951131346 12.145671940870011 33.37843894686411 -1 -1 0
302 2 2.4 27.793375592763752 10.57841754531973 33.72590560146371 -1 0 -1
218 2 2.4 24.687638289610895 10.873651035013811 33.596206648327104 -1 0 -1
1660 2 2.4 28.970603719791246 12.798420970946431 30.729485445463762 -1 0 0
1775 1 -1.2 25.308351379237408 8.553056408555179 27.748977916367355 0 0 0
1577 1 -1.2 26.109958411166872 14.016981859866398 33.395851258575426 0 0 0
1583 1 -1.2 28.13001139464583 14.189880969213304 30.859945603300844 0 0 0
93 1 -1.2 24.22055600859418 11.339903863850825 32.086696638930405 -1 0 -1
563 1 -1.2 27.833984010787777 9.173309327630529 29.44710487780259 0 0 -1
501 1 -1.2 23.126620916967443 10.734497609516136 29.51262550179423 0 0 0
1495 1 -1.2 27.018187914754506 11.19916889227175 28.02638790899079 0 0 0
1557 1 -1.2 25.64818223044318 10.40983563078926 30.147348392792978 0 0 0
1032 1 -1.2 24.657465045096703 12.718536954292134 29.921109763187655 0 0 0
608 1 -1.2 27.958030675388027 11.587979925986408 30.51167335764089 -1 0 0
71 1 -1.2 23.463085230406538 14.19104589305434 32.7395353016929 0 0 -1
1245 1 -1.2 28.322498383100623 9.3978828896437 32.87739310383909 -1 0 0
1588 2 2.4 24.346253392505343 11.209120438289569 30.460597660217843 -1 0 0
772 2 2.4 27.114957891648046 10.62033275340235 29.50535633038484 0 1 0
1129 2 2.4 24.346743756532067 14.273410686704777 29.99896134662315 0 0 0
1750 1 -1.2 22.79965038722753 14.310623832866476 30.30444211118529 -1 0 0
122 2 2.4 24.93156612771534 14.891118894040854 32.87075409996309 0 0 -1
168 1 -1.2 24.812752792095228 14.958828290543359 28.64902308903985 -1 0 -1
1109 1 -1.2 3.7343444082686315 16.47767253372467 28.065722028061593 0 0 0
1581 1 -1.2 5.193017900105533 15.846535928824984 30.027051874746295 1 0 0
1201 2 2.4 6.085913753075842 15.631332650283552 32.684309065797464 1 0 0
1855 1 -1.2 5.07057264952112 19.265023947279182 32.9105820901721 1 0 0
1586 2 2.4 6.387548619126787 20.200843213003917 32.91795074006645 0 0 0
1741 2 2.4 3.974032907481143 18.052055484589843 32.764598206275906 0 -1 0
2050 1 -1.2 4.88625018685459 16.713052339691767 32.80752708419892 1 0 0
740 1 -1.2 4.624328568298423 18.468457395225347 29.50506446468946 0 0 -1
1096 2 2.4 4.991588037693074 16.985816390917915 28.937892616511313 0 0 0
1593 1 -1.2 4.005327515252855 20.680482935939917 30.809858592432512 0 0 0
137 1 -1.2 6.027292563351653 20.45351971655783 29.21052366555442 1 0 0
854 2 2.4 4.575605377248333 20.080088347461764 29.443856614643753 1 0 0
610 1 -1.2 2.8160437723798366 17.888653747035267 31.608688154663554 1 0 0
524 1 -1.2 3.736694034990115 20.645445183626794 28.149450347907358 0 0 0
1438 1 -1.2 1.3999970211043558 18.490387065536094 29.41316999313164 1 0 0
1900 2 2.4 1.4435405349200137 17.680825268536648 30.795142385869973 0 0 0
1194 1 -1.2 1.8400322509386204 21.68918313170663 31.541651331035737 1 0 -1
1955 1 -1.2 6.418659989708762 17.178060617131184 28.235368763512014 0 0 0
1957 2 2.4 3.4668577297165313 21.929339580203933 31.59809033795015 0 0 0
1747 1 -1.2 6.150366938043909 21.66357691357921 32.332503594362116 0 -1 0
72 1 -1.2 7.513471058435833 16.232989530091512 32.191539620034476 1 0 -1
867 2 2.4 1.0897852465920468 19.508863590652393 28.25455701071509 0 -1 -1
1327 1 -1.2 1.0620914395968764 21.050710014665537 28.65123429600899 0 -1 0
1738 1 -1.2 0.9962282684259176 16.195763247546214 30.488467691838352 -1 0 0
1801 2 2.4 7.6425960213774395 20.46741996721853 28.922332417801865 0 -1 0
1086 1 -1.2 7.765558554644544 19.7239034620157 32.21770045219178 0 0 -1
1680 1 -1.2 8.068378152579982 20.828763296232648 27.47319874156684 0 0 0
626 2 2.4 12.29435833803671 15.454459805091842 28.109160432575102 0 0 -1
1357 2 2.4 7.9356872363626865 17.542525992901123 28.582017041609735 1 0 0
455 1 -1.2 8.206358102609403 21.74339227465716 29.71281770093558 0 -1 0
1255 1 -1.2 11.85065093760312 18.201795247093084 33.893142484255435 0 0 0
2021 1 -1.2 9.929932199540271 15.230756731440618 31.358339171235727 0 0 0
1857 1 -1.2 8.032488461658016 18.966258074735073 29.259512773413764 0 0 0
7 1 -1.2 13.088774243341431 21.499763262761814 27.79221779309905 0 -1 -1
1901 1 -1.2 8.403369421516668 16.512487599489262 29.714233319260927 0 0 0
547 1 -1.2 9.817968108538972 19.593277111011396 33.67672698145821 0 -1 0
420 1 -1.2 13.661410114444399 16.1594591510141 33.643933704525935 0 1 -1
868 2 2.4 8.777258197130973 16.347755519698687 31.229924984483322 0 0 0
233 1 -1.2 9.415313436884382 17.76859167759447 31.66531518108647 0 0 -1
1917 1 -1.2 12.147232733452649 16.449943173464156 31.765914637477213 0 0 0
1945 2 2.4 9.351259480337962 19.32457418540894 32.17569551206101 0 0 0
593 1 -1.2 13.373522401718272 16.61526899170636 28.247659899469426 0 0 -1
1639 1 -1.2 11.413981863124967 20.020632384393846 28.821837727265542 0 0 0
1753 2 2.4 12.816073383099583 17.31073723610951 32.987995476718886 0 0 0
1517 1 -1.2 12.929657544347155 20.46834709171665 31.01816978626786 -1 0 0
1335 2 2.4 14.152127146914037 19.47920061856398 31.27584388106484 0 0 0
1563 2 2.4 11.49016445894643 20.75329566211858 30.318843943506284 0 0 0
1560 1 -1.2 10.343392693850243 20.103020068640145 31.169095329592132 0 0 0
1620 1 -1.2 13.860719879803263 18.43239331240582 32.37407361238104 -1 0 0
197 1 -1.2 14.09606833844936 18.63339669222851 29.91021487694579 0 -1 -1
1874 2 2.4 14.50542879884814 17.589322022845504 28.835429775436815 -1 0 0
246 1 -1.2 11.293650758896362 22.2867371058466 30.012656074216594 0 0 -1
25 2 2.4 18.412733710714853 14.966754406338394 30.786691204795368 0 0 -1
837 1 -1.2 15.292410408766328 18.389473799011636 27.704922347573774 0 0 0
2064 1 -1.2 17.64298876178264 18.345225527961414 33.91008440901496 0 0 -1
1181 1 -1.2 15.42660489941759 16.602597565027708 29.717272867255762 0 0 0
513 1 -1.2 19.714793757386058 15.444250664367491 29.834973533245964 0 1 -1
1652 1 -1.2 21.115854137619323 16.10488660637771 27.528774749894552 1 1 0
702 1 -1.2 15.559547697398559 20.10850482081508 31.581908305855617 0 0 -1
1195 1 -1.2 15.480125778097076 21.370412611281825 28.652933445279746 0 0 0
309 1 -1.2 19.56095801425861 16.864156127538642 33.450789144262366 0 0 -1
1419 2 2.4 18.219833924966654 17.44536410294979 32.7378462737323 0 0 -1
172 2 2.4 21.130666369378577 16.883481396743335 33.255792280680936 0 0 -1
2047 1 -1.2 17.938217249870405 16.181679408715663 31.77751144347608 0 0 0
1303 1 -1.2 17.876773888321775 19.61211727958905 29.182885433438607 0 0 0
1869 1 -1.2 17.532186518789263 20.736556170477435 33.22758985165605 1 0 0
495 2 2.4 16.648160351588814 21.238845986693477 31.958214428610873 1 0 -1
1614 1 -1.2 19.80126747835143 17.800613454986532 29.32545092019267 0 0 0
1069 2 2.4 19.08123246816978 19.053382517551476 30.041062517053565 0 0 0
751 1 -1.2 18.580320173737604 18.465970592978326 31.469347323670075 0 0 -1
354 1 -1.2 20.461628762870358 20.939056151198823 33.04080130403558 0 0 -1
1298 2 2.4 20.712789626138314 16.43816317334788 29.089394813619027 0 0 0
1822 1 -1.2 21.366364363769307 18.37700335315877 32.6183749933781 0 0 0
39 2 2.4 21.14095283987567 19.88250794302742 32.09201039636526 0 0 -1
2112 1 -1.2 17.29815970606967 21.52632705664077 30.469520483518775 -1 0 0
1776 1 -1.2 20.234006497931155 19.982607217105993 30.726855360463897 0 0 0
303 2 2.4 17.045963845233864 20.991626550663145 28.916529256965585 0 0 -1
1087 1 -1.2 21.496260686701998 15.634287593574305 32.260910681218206 -1 0 -1
726 1 -1.2 17.85775749435552 21.82106876706228 27.819561517167585 -1 0 -1
1066 1 -1.2 22.11321119021818 16.95385068721786 29.798478846110676 0 0 0
1883 1 -1.2 24.93767168200006 15.060779674829195 31.286492827875026 -1 0 0
1894 1 -1.2 28.41512117954655 19.237664993895464 27.49523378819336 0 0 0
372 1 -1.2 24.798659620410323 16.2162961032774 33.87113609868101 -1 0 -1
1947 2 2.4 22.65673221454453 20.688125024312136 28.20854478960755 -1 0 0
1879 1 -1.2 28.146011538633743 15.306599220211407 28.43387460336607 -1 0 0
947 1 -1.2 22.568396162783873 20.45627915975288 31.796762858290695 -1 -1 0
297 1 -1.2 28.875707584786234 18.378345272697178 31.506199157458813 -1 0 -1
1226 2 2.4 24.879150246217623 16.380279116094265 27.884828240953407 -1 1 0
689 1 -1.2 22.70464231784504 19.307282731589893 29.09060464434 0 0 -1
87 2 2.4 28.311991831277897 15.47928317513182 29.99314738718166 -1 0 -1
1507 1 -1.2 27.31271031664816 16.659546069673596 30.357462540333522 0 0 0
946 1 -1.2 24.56373301931187 17.424245397883656 29.023795886324926 0 0 0
1993 2 2.4 23.338550786151213 18.04910771623978 29.81646378404541 0 0 0
979 1 -1.2 24.032922022035947 18.632668959531934 31.157423435101208 0 0 0
366 1 -1.2 26.807881115255917 19.316886073125293 30.39583656428675 -1 0 -1
842 2 2.4 24.114434981489403 20.0410717472667 31.916800833331564 0 0 -1
1997 1 -1.2 24.28071468060039 19.898144430618586 33.46015175729835 0 0 0
115 1 -1.2 26.813038765377183 17.800053652749007 32.62095321802545 0 0 -1
543 2 2.4 27.29153617457982 18.034823603247332 31.135137180679994 0 0 -1
514 1 -1.2 27.902558369544533 21.387977516282984 31.097370595015978 0 0 0
254 2 2.4 26.558499458770502 20.851885709636484 30.320464292706202 0 0 -1
178 1 -1.2 25.19345473689891 20.969021590700343 31.202656122684807 0 0 -1
991 1 -1.2 26.504759540090483 21.559247342673387 28.903606574434825 0 0 -1
2143 1 -1.2 28.80230931516128 21.985026348444354 33.368096945499765 0 1 0
1890 1 -1.2 22.882110327925865 21.891808675681823 29.184396978009634 -1 0 0
1336 2 2.4 29.097513978202926 22.201624846760094 31.774557040343435 0 -1 0
1904 1 -1.2 3.588222113152174 22.500952329861548 33.059668395160344 0 0 0
796 2 2.4 5.3898555828732855 25.663035326382456 33.96029838361805 0 0 -1
1724 1 -1.2 4.388674488462472 23.142570763382103 27.725295249644994 1 0 0
879 2 2.4 2.0024774238515315 29.26634886054278 30.802055787952916 0 -1 -1
2077 2 2.4 1.1877178522877232 22.621454752012085 28.291399459472405 1 0 0
1920 1 -1.2 6.6428143409679095 26.692364035444324 33.69536248171276 0 -1 0
1402 1 -1.2 2.3265048779930115 28.679894020641466 29.36951684167973 1 -1 0
1810 1 -1.2 4.036959925575757 26.08869786721186 33.19260774730355 0 -1 0
1814 2 2.4 6.666558540233553 23.171306602956864 32.48367278231904 0 -1 0
2084 1 -1.2 5.802867133421615 24.195007612957617 33.38451712375022 0 0 0
1566 1 -1.2 7.288077789423393 23.653989735501966 28.288990180473743 1 0 0
325 2 2.4 3.430594601836489 28.52475171378917 28.187170984200208 0 0 -1
2123 1 -1.2 4.0900563673533865 23.037345740568764 30.546393067510106 0 0 0
948 1 -1.2 4.738653037331856 27.0283863067641 31.06648636395447 0 -1 -1
662 2 2.4 3.3623116122604455 26.74397852240723 31.92624831799363 0 0 -1
1862 2 2.4 5.407408271169493 26.558565721595805 29.69352940644863 1 -1 0
1930 1 -1.2 4.66634494496843 27.697109138851168 28.72468504787055 1 0 0
1570 1 -1.2 4.723765709179085 25.209362402800743 29.187380254134997 1 0 0
534 1 -1.2 2.4698613771391034 28.122716373687418 31.876829376027814 0 -1 -1
2027 1 -1.2 2.479583602336742 25.7231709159115 31.068020818865907 0 0 0
422 2 2.4 3.839070105341566 23.827235714006488 29.13896111973296 1 0 -1
1281 1 -1.2 6.983009802663764 26.694382733565913 29.745748194141477 1 0 0
32 1 -1.2 6.973800501282652 23.674251766138653 30.960307344959098 0 -1 -1
1853 1 -1.2 1.25425989917457 25.30125297311272 33.09266194025928 1 -1 0
1306 1 -1.2 2.2236134169301387 23.55797882552462 28.98116597859659 1 0 0
220 2 2.4 1.022968000684185 25.202883260154632 31.48993983495996 0 0 -1
1513 2 2.4 7.919910528863509 23.322084209359986 29.703271495724014 0 -1 0
326 2 2.4 14.335259813192321 22.4530283760832 28.185083181959307 0 0 -1
1072 2 2.4 10.137619026450302 29.434147957376744 34.04883027123295 1 -1 0
526 1 -1.2 8.076802951411725 28.948726424175128 30.133385776105353 0 -1 -1
2110 1 -1.2 10.70971180904479 23.21405460619267 33.81812114730099 0 1 0
1428 1 -1.2 11.599782805606292 28.812956248306794 33.823626714498836 1 -1 0
2056 2 2.4 9.317400185185985 24.110341925992056 33.72176281700461 0 0 0
1145 1 -1.2 8.079623393980926 23.130152272467807 33.2169746894576 1 0 -1
851 1 -1.2 8.937593757725901 28.357755088427194 33.91201569298811 0 0 -1
320 1 -1.2 13.393961963410023 23.069699635971467 33.317905927531235 0 1 -1
2150 2 2.4 12.433663472940475 27.433702265456468 33.664875027961365 1 0 -1
1171 1 -1.2 13.94093720165863 27.705602289831692 33.21190633382157 0 0 -1
2120 1 -1.2 12.837826145217877 29.03892193270984 30.54969764853298 0 0 0
1605 1 -1.2 9.542555103692433 25.113861931552442 32.41198256098393 0 0 0
1397 1 -1.2 14.093079293905033 23.637885647335196 29.307346584809373 0 0 0
1598 2 2.4 8.419610963377854 27.366193968794715 29.738990438043185 0 0 0
35 1 -1.2 11.517044511785834 26.71116189767162 32.5559232402128 0 -1 -1
127 1 -1.2 9.682741787639058 26.793966031759346 30.51277769223012 1 -1 -1
1466 2 2.4 10.567104571103622 25.905036751516906 31.549878037597356 0 0 0
1362 1 -1.2 8.838564867790982 27.3125560908401 28.17827193737076 1 -1 0
2118 1 -1.2 9.383912777516235 23.9539953958807 29.64590212294529 0 0 0
312 1 -1.2 11.509980935814719 24.265949451312043 28.207789719396274 0 0 -1
1202 2 2.4 10.98773893973735 23.81986985397173 29.662711145856637 0 0 0
1951 1 -1.2 14.14683656239533 28.170552927981817 28.548035102450545 0 0 1
704 1 -1.2 11.452469623005056 24.74072272542759 30.78703456231753 0 0 0
2149 2 2.4 13.953861807767442 27.958702195343335 30.088669675558375 0 0 0
264 1 -1.2 13.338056568346406 26.41764896243665 30.09814275147454 0 0 -1
793 2 2.4 14.202513545529944 25.008733597807485 30.1406791616633 0 0 -1
1211 1 -1.2 14.579491790009365 24.620096679992457 31.68159781327888 0 0 -1
1528 2 2.4 14.825839163803497 23.636969434302475 32.882251545660736 0 0 0
683 1 -1.2 18.398009052115345 29.448143688478808 30.87259696404334 0 -1 -1
1268 1 -1.2 15.160781463896544 28.206556572413966 31.08688170201964 0 0 0
1909 2 2.4 20.096530165683077 22.43666525239705 33.50666294657294 0 0 0
2060 1 -1.2 15.724055729892322 22.38548623344363 32.5336173293893 0 0 0
810 1 -1.2 21.468732073678865 23.29076743674459 33.71193076278356 -1 0 -1
110 2 2.4 15.224424539054782 28.372242889166245 32.648608891024594 0 -1 -1
677 1 -1.2 19.88330290764427 29.208049943598134 33.02104394401003 0 0 -1
754 1 -1.2 21.368083138965112 29.07335627168859 28.393186889473956 0 0 0
411 2 2.4 19.83024594550502 29.09203344204861 31.45790022396659 0 0 -1
2132 1 -1.2 15.410327219730561 25.678761007910612 29.315604670582683 0 0 0
1332 1 -1.2 18.773205264291928 28.82603076426144 28.290857245689352 -1 -1 0
659 1 -1.2 17.353723427066626 24.390880547513255 28.176275587981788 -1 -1 -1
1908 1 -1.2 16.504935819472887 27.552541152142478 33.16902789746955 0 -1 0
409 2 2.4 19.464910492718438 26.428074514961903 30.11828048577146 0 0 -1
736 2 2.4 16.818564843917372 25.904173968435003 28.540583072618144 0 0 -1
1844 1 -1.2 17.937224794838727 26.411302690817617 29.593254915892473 0 -1 0
224 1 -1.2 21.39821579600806 23.28790727967478 30.88374961991322 -1 0 -1
1469 1 -1.2 19.320093974193874 23.254362385081485 29.394034545501096 0 0 0
335 1 -1.2 19.99618048492807 27.67589692078872 30.865976313643053 0 0 -1
1885 2 2.4 18.515314932016068 23.26211474921139 28.011294019776553 0 0 0
768 1 -1.2 21.44889563502236 27.299441713113282 33.343028151413975 0 0 -1
2074 1 -1.2 19.25885553814393 23.036095994054726 32.26327447703234 0 0 0
472 2 2.4 19.85342253995586 23.58336986233219 30.88369917368242 0 -1 -1
1385 1 -1.2 19.68650129772066 25.170954062953754 31.004881851327845 0 0 0
1403 1 -1.2 20.45315461178367 26.26832303754468 28.861462305874515 0 -1 0
338 2 2.4 21.804054113399054 25.6788653780623 28.06895963517846 0 0 -1
261 1 -1.2 22.326822675248522 24.39754590041488 28.826852351746368 0 1 -1
408 1 -1.2 24.101411407248136 23.025299757213716 33.9225395012282 0 0 -1
1683 2 2.4 25.746842727891043 23.242575370889593 33.99419704764569 -1 0 0
258 1 -1.2 29.207861363473114 23.723751896157033 31.30566141874661 0 0 -1
1235 1 -1.2 27.04778375889624 28.540505567738414 27.647795153698944 -1 0 0
41 1 -1.2 23.086123776678882 25.38339945299713 33.48844934900335 0 -1 -1
1734 1 -1.2 28.423833625050495 23.111110436932808 28.251817395516984 -1 -1 0
757 2 2.4 26.83773268147982 23.046784954773173 28.501754669802175 0 0 0
332 1 -1.2 23.880430751006813 28.128713999275384 33.21311802969999 0 0 -1
415 1 -1.2 23.339779872455207 28.964055853765075 29.96028747573577 0 0 -1
365 1 -1.2 22.94746790685006 26.686281599825637 28.55773642002392 -1 0 -1
38 2 2.4 22.692381037007774 23.300952028608368 29.928235482480847 0 -1 -1
1527 2 2.4 25.530677840077853 24.23828113392664 31.057750479831938 0 0 0
1953 1 -1.2 26.463109004174655 23.76762971148325 29.88659965048052 -1 0 0
1452 1 -1.2 28.54288015600019 26.125884393256904 31.04716755244966 -1 -1 0
1214 2 2.4 22.956075552369096 26.821093498382997 32.759816846597865 0 0 0
1646 2 2.4 25.742063774518105 28.87367108342439 28.514701980278815 0 -1 0
1889 1 -1.2 25.21199778952021 27.574745661297683 29.342064153252544 0 0 0
1964 1 -1.2 23.154447390069166 26.75914055868032 31.160784095364846 -1 0 0
442 1 -1.2 23.99962752454171 23.824085839188445 30.644205180895028 -1 -1 -1
360 1 -1.2 27.031676136929605 28.20809425033685 31.466476198994133 0 0 -1
2119 1 -1.2 26.07656930064374 23.607910384300734 32.454817334595894 0 0 0
292 2 2.4 23.703803238842326 27.407447006701723 29.794255023567114 -1 0 -1
1016 1 -1.2 25.796149570001333 25.792962076120237 31.251305695811784 -1 -1 0
1418 2 2.4 27.098398796575417 26.62543961669739 31.634338012749726 0 0 0
1860 1 -1.2 27.307848603877797 26.265200367994627 33.260018616558334 0 0 0

Velocities

288 4.8691954685184085 1.1392900386270057 1.70395497055884
567 -3.4603018036515785 -5.47153226787275 -4.847749939503958
1360 0.666658932954001 0.23170009283346157 -1.1268219922633333
485 -4.843044288247253 6.663529151442754 -2.428470918736611
638 1.533364727061046 -1.3184137058498857 2.478195345762931
211 -6.345322500437462 -3.6220986880673234 -1.2012321130236558
584 9.411381686495679 -3.786181896883367 -0.8468566367329862
729 2.982590750149382 2.3846622379765225 -2.2044856521077145
1632 6.039084397717993 0.4314761699933855 1.5257874598427623
82 -2.7288701035335055 -3.8565835848034804 4.110997184151709
239 2.236033288878172 -6.034245561517218 1.2918807113156174
47 -1.0941409505699193 4.849535196982101 -6.7146861070601656
1065 3.1604685228000218 3.5407203926623243 6.411944283193346
1899 -6.421031091225956 1.2056417932785997 0.35460990813646953
863 0.7369996288561297 -6.844418560188927 -2.927586195450826
583 7.938400631916021 -5.1592453761740025 -3.3675805835034653
13 1.0389734416751424 -1.8353939694965429 -0.38626129835345274
4 2.1116606569482284 -0.7586471492342601 2.790617277506421
652 3.840388454973226 0.33859200314873483 -1.010713867980511
1812 1.041044778403551 1.0420605492972947 -2.55685020267835
2138 -0.12552371073323654 2.1523362625869638 -7.147267421143433
1483 3.1982650482353803 -3.9054204114492532 -3.2704694283552795
188 -0.5210203944274684 -1.0677002885298768 1.7100861872392903
1163 5.165008259028292 0.8985151645911844 -3.604619336092428
1771 -12.213169479127659 5.221383260473507 9.29187431920332
1213 -1.908617176635715 -0.13942447699316615 0.7984622909066816
1744 -4.2221214092249815 2.8185055362297553 -1.7584843474272938
91 -4.7732228979283695 -0.7370584658870007 2.6718028092742396
379 -2.5477737427083462 -2.5192029031838166 -4.6227259932164815
1730 3.2392524687915776 2.1331970622088043 -0.5494956941013334
803 1.5210498637251468 0.5095968264295263 1.0985208848714776
240 1.2889543284180685 -0.8038956741457381 1.3222920077644635
891 0.7013124740354555 4.557765323984843 0.3663091293478633
519 -0.37162637559693096 1.0047264701455556 -4.531316939881109
1042 -1.363851708731676 -5.023555651143658 -3.407430827083574
1387 -0.5807756097855926 -4.61831088970335 0.12479328762188603
1089 -1.6350764981771226 0.7663868741529437 -1.1351708216490306
1572 2.1489511839900666 2.5117938677199296 -3.1594556645073473
866 3.0872455660319935 6.022366386003191 1.7061587080763543
1043 -4.150262884507267 -2.2153826929505356 -3.6121827909220765
1207 -0.3789222051840937 2.556101184062891 7.039273202439458
1936 -0.7965348922549029 3.406053641242684 0.6849169911196147
1803 1.1105849473990426 1.7429384308038804 0.7156818017941652
1919 -3.4924778789569215 2.3193652223834356 4.3748554517564
1471 4.636826287888406 -4.0216857274171725 -0.9725795628349998
1837 1.21038486258125 -2.8191615975795083 3.103180179050645
434 1.861898122032283 -9.588026048898735 2.983637023354306
1820 -2.667225377477324 -4.457791428384445 -0.4609865609492768
1241 1.9605892798666584 -0.5487827090018735 0.6089925190379972
393 -0.03222768450732409 -1.830164991940725 -0.2174836974450452
1961 -4.022148311144562 -5.42143830747292 8.575440785789587
282 1.5660375547233512 -4.669138816246394 2.8449509447351207
532 0.2544163765134296 0.77837183432755 -1.9413848829491085
279 5.0654661530286385 -3.3763861532303334 0.7645939305007076
1295 -0.5211462503239362 1.2278917679100425 -3.014178359492304
799 4.746356350262095 0.809346896330207 -4.723863600287674
1565 -1.3154244414195948 -3.263857996973045 4.865577116262198
204 1.1960073593131177 6.849063224497359 -4.071771000569485
145 3.299950828728808 1.497190071425869 -5.921935841561459
913 0.384524250639431 1.3354055152614457 0.9064431485102645
1761 -3.4131443220009055 3.154638503982671 -3.062751992015831
1075 0.6813513060590964 6.877732335523224 -0.5284719029820217
398 0.05466933604611393 -0.22154817640834468 1.1562085581221162
1374 0.788100293836453 2.370849808570384 -3.968420419293055
190 1.4295615151617143 -0.3628844432667951 13.644385813717253
818 -0.13968445030498866 2.5426202597322884 -0.10317162999882289
1561 -4.457374208005669 0.45579257819161345 1.961465680708091
486 -4.204324525790282 2.830631477872466 0.5127521718698284
588 -8.001663617355566 1.1268595746476409 2.952767694546468
1784 0.3601191106714409 -2.894582588029785 -3.2031656352815223
749 -3.8199692583402474 9.599297201784811 8.744910415474632
184 -2.597426919019171 4.639901339144796 1.6360152981968925
180 -1.2993945639551414 8.465390162591486 -6.110586771959436
401 -4.233095354128558 -0.08166957168431871 3.000945252821714
341 -1.2314450087331668 -6.1934130432976735 2.3085292170337723
2012 -3.100543486945877 -1.039078310679619 3.663235297590823
275 -5.529241847334396 -1.206270738560305 -2.028282718906302
1189 3.9003217152654224 1.3957856204283499 0.6307126038495444
132 2.796835816866273 -1.9304103744784724 -1.8197372477233171
1408 1.3153191467908525 0.34920966779510476 5.210939784121745
817 4.846838352235158 2.227654647495991 4.283247438445758
848 -5.231440214080763 6.74008651017953 10.968200997789863
1569 6.017314481940623 -5.4279008161945175 2.786745245683289
577 -1.0363606800955278 -1.9337032461617756 2.445680123458421
1787 -3.3895979831050225 5.4732123404253 -1.9150068918531489
791 8.573597029762619 -1.3432736943289918 5.517524116323733
833 -3.1256040444690396 -2.157683395494484 3.919504365049325
1459 1.729736655200209 0.05502940582248547 0.891685266279927
1726 1.7968849002529605 1.2266200075586278 -0.4466132843294741
995 3.289234556888775 2.0894000636782653 -2.1521167425070082
1443 3.1930507080283683 -0.766486833690379 1.2959428614395518
2140 1.8541611964142202 -4.246137709952733 4.89029365603444
697 3.67325014281169 2.5155645886333944 -1.9299346877118198
192 2.217815339449845 -0.5286997926388269 3.7294683187285007
635 4.557769944015609 3.3030337423024356 -1.3345641840614757
1307 1.6206824267984097 0.7385496990253682 -3.8434208553491063
63 0.5725180377453816 0.7197487704031058 -0.9809865772350932
900 5.645143879768121 -4.019001530683033 -0.7640314372117136
1705 0.5915085061860696 4.642376839248526 -1.895139880182691
187 -4.812530829991817 1.400512688636494 -1.265940763080858
234 1.3620338070972509 -5.769645321378088 7.308396080287565
516 2.1643852867379736 6.10656437789781 0.883161151302546
1984 -4.395471352624979 -1.8629589170002891 -4.52208559114843
387 -1.4419975251218522 -0.3174006989212253 2.0193468460962434
1783 3.769502709777869 -1.0059665298785267 -0.04770522971713942
958 -11.759617811139425 0.27645168653171304 3.0795986347824718
278 -3.400841983454374 1.8727949378612456 2.0344520186488797
1206 -1.0891283956150648 -0.2207035399329692 0.10656124060526512
535 -1.9992126250915154 -3.605220327181364 -2.996581812221229
1504 4.784867222682168 2.8338211467607684 0.0986979439323233
1978 1.0258486381409126 -2.2321323420753534 7.900044724134108
368 4.361261341791941 1.3736276922350237 -4.475360023734656
173 3.1541529046770265 -2.361115528099338 -4.4558610291236525
1420 1.6380382517980319 -7.385022882453552 -5.761696335739899
1315 -9.371248034979708 3.207480132797995 -0.5076811980481202
1456 5.223117969394323 -1.395727443952789 4.012484048548761
1526 2.106319503604473 -2.6130631120862913 1.793967058730081
2100 1.071492965743469 8.137674518076963 -2.810279883672079
909 -1.3421358765745248 7.023687847229028 4.609769175968999
1040 2.057605467785231 9.191752572306179 4.439516950468346
752 0.42432429453846837 0.7756286143484933 -0.10470760531469878
1342 0.27104869687392574 -4.86035913123195 7.632830670799603
2107 1.486893341859001 -2.6431150992412227 -10.041991233208105
578 -0.7925542227415776 1.6678510891451455 1.9483073940233084
2029 0.9256791472373749 1.9844699654437394 -0.19984631928588947
388 -0.4878464206873961 -0.8196615800601486 -2.33160047218873
787 -2.1975450279846673 0.36059333838905555 -1.534241885517007
767 1.1964645817132338 -0.9565991742154865 -5.146932081894171
1272 1.606021912068872 -4.450288926397418 -4.726013681078796
716 2.359193622790314 -8.76596034907978 5.598007470026148
1604 -3.362840372492967 -1.9264476439328497 -2.7383315992573185
759 -1.4111472412411652 5.457155108391808 1.3100814221766486
1124 1.4920867618349258 -4.714932755819834 -1.5600166247436396
985 4.628793231853167 -2.2801014810622835 -0.5427760394959966
934 2.1542523287616304 -7.051530586266964 2.5964697636796616
728 1.266697809044335 -10.509044251297393 1.3349661086686702
2034 -4.033522419797277 -5.4613764984867155 0.6811397001080521
654 2.907313873953992 2.1779210481001594 1.7527714326430688
1389 2.918365597757308 -5.213218808076717 -6.582694036185085
655 4.875517868623518 1.05701234904516 -0.3631447273691771
1804 -1.3534169075526563 -4.8361717660513195 -0.9843525094992447
1304 5.2083690440644075 3.6365151403180076 -1.9475597731260836
1222 1.481298789240687 1.58020661932903 3.4726909140065754
1259 -6.305826169998272 1.6188151491557206 -2.6307744482584274
1828 -2.653295988738918 -1.2093700463928487 0.14737473054873335
724 -2.948354728668202 -5.0713030769202385 4.021648476230659
709 -3.5144178176407723 -3.961256626527043 2.337742527096974
748 -0.8848612848069387 -1.6479572308701056 -2.9180886067930523
631 -9.886150520430308 1.2206758273448248 -6.912836670813656
1992 -5.017910476061383 2.5573945876907995 4.572979953802189
1260 -6.06818803924501 3.304797471456269 -1.3180313984815635
395 -2.3626423960851084 1.5201306268811996 -5.073907341253771
130 1.512390491146258 -5.628044779042363 -0.10865676534686265
1629 1.4020560248430454 -2.667627544180471 6.902174195832541
580 1.641896486131378 -2.445542477703897 -1.3555014167445865
530 3.153281468775274 4.592883557728537 -5.2918248000963075
1774 2.0812815881725415 -0.1765764312337865 2.804737119380671
1056 -2.41438083362404 -4.7467492751217195 -0.7720141326899321
888 0.30653447254434735 0.8961391035087106 3.010535447997478
212 -0.8416609580765706 -6.47372515192204 4.621011626713994
673 -1.243756339967869 -3.6171840017395396 -2.442109960479415
1055 -0.8429484074951417 -8.420126897511455 -1.0823818616876597
152 3.5696301655457914 -3.308305009737836 3.6063857618432116
1100 -4.03173298507541 -1.553916062492718 -2.1573408158228227
742 -4.032573147199424 -0.4826613382694206 -1.165944010565772
1760 3.920164713534668 -4.950815952998033 -1.444601733594608
1543 9.404774293622454 4.060690731965259 0.00662076263261041
1960 0.9594180457055963 4.703452955918882 -5.177982141814646
1465 0.9846528499887185 0.5059236144541088 -3.1085583197301885
668 -1.785828211844143 1.9905304025832984 1.2558786046390342
248 -0.8862672916516448 -8.503515917868118 -2.5563574382872365
1470 -5.5297088523593985 2.6969838790042826 4.497180527953478
1453 -1.095001485417643 -1.4126198009441995 2.2899397702329427
1975 0.7354500636722426 2.1560662443767717 -0.333106964109448
849 10.402281516605736 1.7018273716357295 -1.0112632930589043
1873 7.254588364069191 3.1841600838299087 -2.027882770125408
155 4.25240265556581 -5.773067266549875 3.030439587457795
386 1.6583899382876761 -1.7608071300704693 -0.7389331557661438
1165 -0.8081385519766836 -0.1478947929194702 -1.654144691911813
919 -4.919854879462348 -0.6393568559597532 -0.0718203561554491
1578 -1.3302054008512318 8.111282757660533 5.774834897387599
695 -3.590639520950067 -1.0584998198857203 -2.0319879612741283
2073 4.258820693667345 -2.564806183111596 3.5459125650633694
226 8.994302686504009 -3.960817400466444 -0.9565993700000008
1536 8.096859408577968 -4.890472895707225 -6.601385073561484
1967 -0.27497580221622714 3.4656196190053388 -2.098001752053026
2125 0.11089835295338456 -0.43855773719464064 0.9032588165287748
198 -4.465389558888231 -0.024145523332387963 2.4307854975964824
140 2.6192523282865148 -2.2896101680883043 0.6828449746686488
34 1.0314691072761357 -5.971084544763857 0.013894157603481668
1647 1.0516183125745622 2.001034929743791 -0.5662963375691707
73 -1.4257672573659648 -1.5685514500475801 6.192699450441373
1457 -4.002337790490056 0.8978280957519599 -4.601117788340299
613 3.469929863015119 1.5985749805372127 0.9115821825200311
966 2.109609928036898 -5.9048039330830955 -1.1529684979292076
340 1.0338638649457612 2.2643232035010064 -0.7812279348425777
629 -4.617505276739182 -3.8493538278462553 -1.6375373952565209
2061 -2.882753636965609 -0.477062582030758 -4.100788965527163
373 1.8486877591286843 4.362949489074971 1.0243505681592449
219 -2.127936387960224 -4.573157851858694 0.04654706178182758
594 1.1881167628171818 3.4833537766324723 9.291989624371606
719 5.96723012339412 5.763576791319109 2.726757177379017
208 3.9896931366195987 -4.491622394423144 2.091720006677585
384 -3.190603437738263 5.174323847910619 1.5633539957328433
1524 4.392362800550289 -10.137588850872365 -0.22138090433161584
161 4.779301959079032 -4.842641104261174 2.7826145164051277
706 1.0421978228749031 -3.525794279148382 -4.152201854523674
1231 1.4108803659952969 -0.9566550014580439 0.6530925230211507
859 5.045365723631551 -0.19871057129620529 1.0794491653210774
1480 1.0247173611039704 5.034987141268473 -3.2773748379344125
1792 -0.8016747099821775 2.221596181763885 0.37469244457515616
270 -0.47621250342443416 3.040579950170639 7.79091389245358
1511 -5.345197370785827 1.1095028394229878 0.17735235122768503
806 -1.7618050557246294 3.1291023852853392 -1.1724451448117386
522 -2.536214325354624 -5.168548881972111 -0.2634349555663113
228 5.424146275055571 1.1115473375868288 -0.9097653720578806
1262 2.4703567814701994 4.757919467082694 3.0138194299059227
1162 -3.7969441823152095 -9.405521375083358 -3.2786465224855608
405 -0.037304124832723724 -4.046424651321067 0.5099297458585735
1794 -6.906404501700615 5.113757809495037 -6.523108423579456
1892 -6.507233068653888 -4.932016439480548 1.3711921572920915
2104 -1.4876620063578236 -2.04506201750683 -0.7991881576799392
1433 -4.624470773906846 -1.645734553719007 1.665148322357375
316 6.6464056136239416 -1.9850716888815925 1.8287690322419345
1292 -0.6501458773609189 0.7814078562872667 -3.5919345277644683
2033 -6.3431488869593355 2.6627345261280206 3.2062996646181245
551 2.63483833050234 -3.096989311892888 -5.822873080203829
22 1.2011542768086656 1.8750255039473323 1.650656953782823
1398 -6.251558131581766 -2.9268410145604564 -5.274853147438427
169 4.420904867157828 -1.3392797772651148 -1.1688316563475916
1529 -2.6128658178723314 -5.32597718378 -5.772042259985134
1887 1.045471878201521 3.3413106546641336 1.6137504071511268
2007 1.697735749733809 -3.2776491973466273 -2.502099011936742
553 -2.021857725447826 -1.827060979011546 0.7658869232847766
1098 3.2810869908079776 -1.0439965938259277 4.210551850840923
216 -4.461009929058077 -3.786013167204592 2.6552489871164897
440 -0.7066501159568919 2.7856907583137382 2.202775653666338
1906 -6.677854461429512 -3.461904084843246 -2.510111788006758
358 4.151982309885307 -1.8618386646334348 -1.7489321113164245
1867 -2.886460853250394 -3.057403427706373 3.747954329924204
1146 -2.1551772959342532 0.3601164797727846 -3.6814399640716737
892 2.1376388440529484 5.418331875942868 -2.377357331005365
994 -1.9477592885230983 2.6378734676826805 -3.1973452945670098
2102 0.6047076464671497 -0.823228704289568 5.23611734738718
66 -4.433328268799474 1.0750324558283022 0.5946242086363163
840 1.4891781470843253 -1.013470091695673 -4.97444555820269
1567 0.07490437488407092 -1.3090221757232487 4.068048502096327
1455 -0.8197466994371765 0.7503961913773932 -3.6115892090461843
1393 1.0357617612734522 3.1438649413116333 -2.649685574297849
118 -3.619960779010998 -9.00422648276647 -3.145504055190604
898 -0.8138932283188294 6.090886364294436 -1.995538796599926
289 -0.7267573329880197 6.265958993767297 -1.860641125838315
1261 -1.8009818347574944 3.6833114518171697 -1.3883586048556797
1449 -0.6937648518654849 -1.5776827449255628 -5.9293022500649055
222 0.4922421020064477 -2.214375789281836 -0.45975930706177726
570 -3.9665160643967323 -5.504613739685375 -4.416447641998711
1083 3.6048354637139997 -1.4269696041877373 0.8735279461061363
29 0.38277220314872773 2.375887847309999 1.2898331675951171
1351 -3.3950393110634876 6.422493741747318 5.11791718678621
1252 0.39153858863477287 -0.7666787803603926 2.4498466825250054
1234 1.777214093683476 -5.828793428765622 1.9844192798071838
536 -0.3022913760523054 -4.994131249032877 3.7145082268026757
685 -4.679509925759086 1.3635272545157475 0.6240485517266916
105 0.8594283297002369 0.6172586093348709 -3.0825065576910617
627 -1.588124183312725 2.095786654162034 0.8640427080598325
268 6.095792510519268 1.4271291149861276 2.886166509888741
1735 3.3834190343349952 -3.1938271513686267 2.5699481714962293
527 -1.863150447761575 -0.8055331558198113 -1.4230712580786282
1743 3.8023954513882097 2.7379792049271736 2.0300929860042887
2081 -8.359810246317533 2.8247965976766656 -1.8329016104483355
182 -0.2726560577343833 -2.7103958374900974 0.49140386088792326
244 4.496621740245394 -2.850267086828188 0.0002876108204193087
1172 -9.245333949046303 -8.205598746470896 -2.7821488398355094
661 4.085762031314931 2.216927889192688 1.2328760814982702
1653 1.7900900519844598 0.2580456343479142 -4.705373429803182
857 -0.5229554825677196 -5.364354676403803 1.112948108159685
1520 -0.697135160335943 6.5644360437858635 1.4885639980613599
1607 5.703390776190931 5.1331436229372995 -5.086844989513494
378 -11.646801586390122 -0.4595914436138651 0.1997474992083787
26 -4.520578324683246 -3.049288937884742 3.3290500030202343
1876 -2.8199999124999287 1.5147017419539086 1.3197594088928204
643 6.409711748619676 -3.5175178396314872 2.9307860278368474
939 -3.667254096380366 1.6633027177103825 5.808311438344359
1872 -1.859857679686617 2.529101430838164 -4.489405089465065
163 -5.068021615978564 4.989415687719247 2.471017813606371
765 -3.167850951787772 0.3259037451280817 -0.475781915596809
600 1.1403731782179534 6.569807540796973 -1.1235896559571692
795 1.8421047297098367 1.4171783655134875 -2.809616544786235
1482 3.9381703556154046 3.9188160082101295 7.991000824558902
1638 -5.777222478736816 -7.211277290667096 4.556139805629326
412 0.0711921821156461 -1.6842668166651713 -3.1280637655257744
2020 -1.8756683335154578 -2.7968580753691215 2.6506504836881097
221 -2.992054769074832 -2.522294131534339 -1.05268193211399
1111 4.940253046125254 -1.6749281457083138 4.089962085655922
504 -4.494226621525516 -9.564954374957301 8.14195159093268
439 1.283052874389788 -1.8425357198450278 2.3289509366978214
738 -5.824964783856272 5.040193551528414 6.567473388039286
977 2.4260349314143728 -2.4558969982657843 -0.30732505213959027
907 -1.556492531174229 3.5509544264684005 -1.4118599848964006
1950 1.5179095944327148 -1.4691742845144817 -2.438261071165862
291 7.264111128353921 -3.000963823480378 -0.36161663599668786
109 3.697990576611334 2.3053661553699984 -3.235760693314179
1991 0.5445294275096905 -0.24692916939840398 2.515615476010261
587 -0.783692736909369 -0.23053640810171663 -2.5930310419281475
170 2.8613660070041034 -0.6310733274262719 1.2077064500903751
1550 1.5528920615307409 1.921466081113508 3.1223749722490983
2055 4.271657614645925 3.3170978690585535 1.6745125047446068
1758 3.2485439327654473 0.2939357602248285 1.726371982504294
779 2.410376545955791 1.6221912645125778 -3.5989099344374873
1912 -0.11128874348485485 -2.7973099477852332 -0.3383714982459581
1674 3.3992452431531954 1.3048671386106172 10.156234952198123
1283 4.511066251776215 -2.54651816388008 3.5662024801382675
711 -0.7227580287300847 4.308512392526817 2.193207505490325
2146 2.4093171767908714 -5.380282563337187 5.440288339130138
2113 1.362962116226288 -1.4042929678630107 1.3828721197486509
1742 4.01146202899254 -0.9431772800018241 2.4909433792756595
2088 3.457278769056869 4.974994232119889 4.892218887111702
294 8.083421701436503 1.2059848752871491 -0.9183562453863615
576 -0.8863939079808834 -8.656407010284495 -5.915319096028168
1105 -6.076712476103547 6.066807918191111 -0.9737798499008354
2085 0.42263234107238573 3.27380336764714 3.4534163798753945
1289 -0.764348051079306 -2.4019293806472852 -0.4224364390668716
2090 2.2298726412799263 -0.6681370491390679 4.076306675485905
800 -1.6601586506744181 -0.959634975676639 1.6907786429139764
607 -6.516197456316516 -3.059756860155424 -3.0971896291678873
323 4.945878445853397 -6.335038051455788 -0.6395821170911468
1773 -0.42383862664402233 -0.21516066877064904 -2.741074196440342
290 -8.008004533727512 -1.3878177605605886 -0.5343569196837138
149 -3.5877048378065903 -5.2215713911912145 3.2978828300685046
1807 1.9073103250156163 -0.7357785441040898 -4.303279355503865
1257 2.5796834646824918 0.15341130559806937 -0.8387380827357704
2070 -0.8648181548522211 -2.175871849233046 0.9316177737502283
363 1.594267195181506 -0.08478678618416825 -0.6640391203406427
2109 0.07602736445968819 -9.90871267985149 -5.147598879697158
357 -6.989217666043196 1.0995491697884432 3.2870206907046176
895 1.3351750784685061 13.046621450653898 1.2584183887604805
2008 1.4662625110062069 2.049812622872371 -4.268400625106774
507 -0.90336457136477 -5.626559482500945 2.342754428821784
171 -1.1291916998172944 -0.2775436143257331 -2.7835443340097963
8 1.7268401056815899 -1.9918664554913803 -6.756287702995409
334 1.2428523629425543 -2.5385826845389987 -6.690177364350095
1280 -0.3583185603729743 -3.926425249800988 0.23568329459974163
1592 0.31296876189117373 2.243299446204402 -3.852581742692651
525 2.682609811099696 0.11058418419129146 0.47153053258811406
794 -1.4301536175098855 2.717130278502254 -2.1151756009123277
1287 -3.7231130317159153 5.88942116927533 3.5605162294729538
1711 -2.3547878416903467 5.344857961479972 1.1693871509998917
432 -0.8702231887074492 -0.021180917361504004 2.10739171391132
1240 2.575568307649781 4.7689969603541105 -0.7027943427044558
1 0.8447726593067741 2.592615867570742 -0.919197026672281
753 0.32515505577857273 4.880891301038285 4.202222749923632
346 -1.8208006581479523 -1.7116044868464182 -4.2640839412111236
823 -0.2928076882867924 -4.709641474489817 1.0494722824667302
1948 -2.935902873490684 2.783684054827605 -2.587203763362925
287 1.7466141934027408 4.237440894751798 -2.7242434396495394
255 3.433925404085426 1.2028928846109248 -4.221166406438919
271 0.8787713647182909 0.19130248832286337 -1.7310681407376038
417 -2.1338041330235273 0.38491492882959943 -0.9841382009319484
557 6.1712986999039225 -4.633805005102874 -0.010071599476156575
674 4.253888186839799 -2.51496618401704 -1.9133197424613617
165 2.4636385533837477 4.81515233145946 5.900953368024019
739 -6.915153990594834 -2.89728334596681 1.8525895481032082
390 3.04141219646945 -3.974622033748982 -6.902111902626883
782 0.626392210378519 -0.3994124013917047 1.8977252950768502
1205 4.89986162637164 -1.3847046302222605 4.985496602500212
663 6.631993310899621 0.6429801028620385 -0.21567342645034468
1725 0.8727156640287365 -0.7573420713565344 -0.9337433612748196
2059 -1.3314130599153569 3.221272087799772 2.5869282313374726
1193 -5.099136333132953 4.320865973993453 3.346116783317725
1166 -0.30767818449759676 -3.7021657828285113 -0.4650368757603581
407 1.5534963224549234 -2.100944570822718 -2.0472936057976603
1796 -2.680989801579056 8.007056794576696 4.374871703998101
568 -1.5462961926056966 -2.8948196996223716 0.019958935050469435
328 -0.8496812732367225 5.799635633330567 -2.053901588303085
243 -6.367843119437551 5.857588551881888 -1.556583759797194
813 5.290169593640604 2.6921314664538203 -2.310545862295812
2142 9.725064498765118 2.688858765867771 6.2524608561792725
1946 -3.0719626836839082 2.720784112910988 1.4036443966897783
144 -4.900249173692065 3.4231133932286397 0.3267400268897292
48 2.4766206287901547 -10.609820501105343 5.018855154284171
780 -0.017537922638501298 3.239895580754767 -3.022679809082524
59 0.9811866561805426 -0.09067433727680928 -3.968198213722638
311 8.699758692256266 -0.06418253850785291 1.1508958593962444
164 7.6388915567978435 -0.9877030377532742 1.8852570276209555
1849 6.0599439182465895 -1.7954108666977415 -4.165811615938344
633 -1.5640651767179115 7.26316394171901 3.7372187142267412
456 2.424898455128021 4.185939476827384 -4.778020075411298
1081 -1.557853248926246 -2.4569824205448425 0.42520447906127473
517 1.43186725029432 -4.041366233748702 0.6497357131938221
1054 7.956265130255727 -1.6110206737851025 6.198754967826346
285 -2.4260264999127275 1.4426819712339756 -6.304649101870943
85 2.729954213354108 1.7925307588851425 -1.9604272909896907
1002 -3.074289236561868 4.229573693223385 -3.2085575661749846
477 1.4206297932973269 -5.403551165023984 -0.30851368702410864
841 -2.582838575578195 2.245946847005289 3.0804520655990384
104 -10.17180201085718 -5.288244054519285 1.4743969464844455
1478 -2.1643923166074304 0.6972995285160063 2.382004785024747
807 -3.385927351195419 5.961746664731499 -0.6926383225214029
84 -0.878066128852611 0.9330158518291795 -1.2232544384154498
1666 -0.6503201910223857 2.822025295089734 -4.499910877384476
200 5.9868518788661955 0.3547369399475814 2.4125108955968764
1824 -2.8698293395590118 3.7535721755928964 -9.50521970980517
1521 -1.6587737477986555 -6.226233147081577 -1.2941069059444386
1444 0.4801303866004436 4.630052274687807 1.0601501202375103
1114 -3.2026019754082538 -2.7938405813135807 -5.407738870064459
402 -2.3312525051169173 4.405354151852987 0.5714249292768389
1625 -5.44664800076059 2.318583116312105 2.929640302415805
1940 -0.9990864227508828 6.462859675227968 -3.9169616363470485
1490 -2.0769659966145446 -0.3519611167874144 3.057252281351081
433 1.0491570750636594 -1.0964646905654316 -2.007063197396537
418 -2.8514641973050323 2.0230515002021696 0.22146125417190074
403 -6.049195783651558 3.1398532700050126 -1.7083754779081197
397 -1.6590967302654454 -5.371394928109225 3.7600997770845366
1700 3.2153548968008376 2.7189340330154734 -2.3595783297378454
1782 0.9891048043371357 -3.9454418438145797 1.7944841347870446
1462 4.161135593019051 0.17374072075557132 1.6832873652021323
134 1.8894749618981836 2.868934508922099 1.0823687205004018
1251 4.300140262042251 0.5552543072808924 -0.374921474011814
1519 7.040859599603225 -1.3681801046727815 -2.3139765137160424
658 -1.4402066194915872 2.916032287805707 -7.622067223466015
1364 -2.5755889405861563 -2.9244618708200174 2.0090755415417303
3 -4.8606002925635385 -1.7384298023136495 -5.306582428866529
1684 0.49255082330017064 -4.3171032717290325 -1.1900662340950356
441 -1.3352177147598137 3.076857023807399 2.058056825892697
428 1.8322770928168883 0.7759612810556782 -2.8351184772201514
156 0.5281027723193559 2.5247186494133476 5.590830634810077
1941 -4.48889478441205 1.593338866814806 -2.214318561444223
1649 4.558770531422793 0.5290546608858571 -3.1811505398545292
969 4.423440656536458 0.0663093909827818 -6.7549159979070765
1070 -0.5964344409976836 1.2846003956193952 -1.5711125671486228
942 0.9703489751322328 -4.166185123297379 2.584671125529028
86 0.42584042832583263 5.482671819265868 -0.9363096501833745
981 -0.29833611113657227 0.3153162453556311 -0.7896091816251485
414 0.8562986392898677 3.158124523467633 -0.06807373452993262
1200 2.1180476596762396 -1.6504947992489722 -2.0956894285397736
1254 -3.6808501889130385 0.22657142422423285 -0.1947273188441883
186 1.1804105161187042 -0.7633709842894107 1.6997678348094667
596 -6.070441304588087 2.5421197965833766 3.6561136682510034
52 1.5905754409920692 2.048355613692508 0.05136030875180875
482 0.4312105762356501 -3.2628270084112905 1.4478445668866533
2019 -0.6431315471312762 -3.9388138665808854 5.917800738133202
871 -6.053396652009392 0.5353872014553714 -4.564251769531888
869 -5.230908901562607 -3.6767938064742305 0.09864004343330857
1388 3.6202293851103167 -2.0832993194532534 9.049895164377165
1805 6.201782288754711 -5.115809991460986 -4.5369407474674714
1932 3.8205597101106012 -0.3588675740447421 -1.9188097473686994
1274 -1.0847502673234872 0.32011528884824814 1.8818696054602086
1751 -9.47256766964468 2.773489516775467 4.884862220245146
157 5.885734371895688 -2.7940730869301214 -1.8330506443204417
599 -2.795932295126864 0.902501708933817 0.12704514378452714
997 5.46339656074195 -3.4445585803075622 1.2907178360621097
2046 -3.6710354339460123 5.354528904714095 -0.1349844845427982
777 3.9950550586281515 3.2424404018492003 -2.3037337501808586
595 -2.06517058372787 -1.2357700136344467 3.2926422573599314
1971 -1.0775862874564763 -3.2583931342512806 -0.28820671434964856
245 -2.963421264410359 1.0540235029074454 7.8463196055328925
467 2.4087517788601773 1.3697040649077536 -1.6668934774826722
1269 1.9727016321054671 4.041953535825718 0.6778863102659053
2115 0.957511925964586 -3.543075803683071 0.9087167491676018
449 -8.27282011466704 3.228424633319524 7.6742014945499575
720 0.30158924869152803 -9.038097483296601 0.6774157796547758
33 -1.541156043360356 2.61566526486497 1.0993508664207061
1000 0.4276018716134836 -2.313724086954065 -1.3870215276804012
1237 -0.7703353532974052 -1.603972072608705 1.4103493522594202
1187 1.6550934505849564 -1.2261099894676473 1.0851165677604873
1186 -0.8556281752795877 -6.379582758429775 -0.9471653737168985
956 -1.8896701608256912 -1.435934196967974 5.603362360245413
722 3.769046586126562 -0.20981161736722503 1.7267454538398916
1366 -3.6956762709735984 -3.5056946348007147 8.554721223384133
1996 2.7324594826050834 -4.302190192726169 -5.487571243857093
376 -5.863052138870519 1.413500424855765 -3.1452352171489726
96 3.0631759386061357 5.474400612078681 -2.330574774451155
1183 1.1088965945735412 7.368629022725635 -4.691871162497032
1492 6.380273855172342 -1.846737113040887 -0.39724257959948756
1516 -1.3763121040014759 1.852751908654492 -0.49480888104274506
531 1.6719973931216172 1.24472362389405 4.2656640715349425
2153 -0.6341716981313323 -5.697972123782397 -2.381916699869868
1003 4.789659489249665 -0.7410974083707069 -2.144522432732613
1148 5.081165366188284 1.277318370104495 3.5274612782564208
2048 3.342552042461492 -2.0080918079039494 1.9439313576592587
1139 -3.5687184468077473 -0.052624918819200686 -0.45894484716531114
890 -2.2726375686824265 2.116572051476762 2.5416820215098834
1265 2.5912880196195593 4.112154634211103 -1.8863192175934616
2130 -4.108029003232086 -2.7219771923666713 -3.771938108433753
10 0.1770517542960045 0.307645695894286 -4.585881171796074
1983 0.02682983901508306 2.646963631236688 -0.45406561463709744
1412 -2.0490095168841402 -1.4589196497313146 3.7902172164787835
295 -2.624284228714994 -2.0381115763484385 4.617187484266717
1377 1.712372870906444 -0.9849914047959264 5.31881703745319
766 -2.1249298546587965 0.8889901806387431 3.006208311627013
1125 -0.2725562576930024 -0.9578386355827684 6.607299147707774
252 1.494169953311253 2.5897724833096274 -2.615947062745401
352 0.04360550194246368 -4.101743741501377 4.228131525934898
179 2.529666284534482 0.24718376782467602 1.4233344386344162
1266 -3.7320749272904354 -1.119096224159926 -1.5833834748918554
125 -5.395778932352762 5.000502196342884 7.000047500729498
850 4.131978697743189 -4.941885155141539 3.1861993861837163
253 2.915991344043557 3.9513759355060514 3.3439572094726446
1061 1.1458841233434083 -2.8170173798704465 3.180251334552421
1104 0.8160666075409754 -4.824620339165767 -6.2353797453636215
265 3.27971722694291 7.56246859755611 -0.043380331255953926
650 -2.237649549411663 -5.2031217894288 1.2032536990154232
301 1.4610974900120315 -3.6240873290988525 3.3547427493460122
763 1.9352853353806057 1.230230089888676 -4.759945516765217
1368 -3.5278021236778954 5.063514261659031 -2.4350941067973175
2041 1.5701439516497175 -0.7374038722239572 0.9994746387939013
2075 4.910080780005556 -1.9180850598511399 -0.5151791605218256
528 4.532609992101946 1.16707765650392 2.939565465728392
429 2.9047583598365643 -0.7173662796903431 1.7165832453948462
1078 -5.905943230776896 3.634445931026585 -7.426180742435775
1558 -1.6694981003180946 -1.7283997089979874 2.3266773311907123
457 2.2551768460195523 -4.014536114404144 -5.4674280184666415
1429 -2.313023849240202 2.806258372191132 -1.125688124020306
1691 0.5108951209849226 2.9560692884185737 0.3917545567495744
544 2.442066418299047 -2.131693738774451 -0.832823452534632
1121 -4.67417155825582 -1.1528725340668655 1.303699760087877
881 3.276585275103317 2.7405915310412396 -5.337645470107497
1224 -0.9345852302407287 0.9632510468294498 -6.494163535491545
447 1.454125157278141 0.2855586841065307 0.3196437882607023
23 7.835826318582557 -3.325265154945736 1.926446338409818
448 8.35983870142661 -0.7323961229126651 0.3142435912698445
1156 -0.9640244353477401 0.14331420797781716 -0.8761787708333355
1312 0.990311842430247 -2.241411927960582 -2.2924018358583136
1746 0.11309531958017495 -2.3878685604866012 5.485149231714491
30 -4.7884886936805175 1.5812159210972159 1.0055254073595037
9 3.3222986277322946 -3.91289228734196 1.5737556159914226
437 -4.731755703187472 -1.7026313378122993 1.8588512317404622
1277 3.962662256139609 -2.595548947152773 3.5113671293817466
667 1.9550094612057702 2.005251404665469 4.253839837873147
159 1.4045912171649804 -1.912834276039799 2.2264773489732925
451 1.7366968588730074 -4.094337767440581 0.10475222632346787
1372 -0.5812272785075622 2.8253598372474253 -3.8472729373552665
1012 4.6394645851912175 0.5935804074021577 -3.672455794171485
300 2.8864283449279595 -4.007009302708268 -1.145337093774627
865 -5.838635721409426 3.6005738185734675 2.0899548612862575
1435 6.12452603118875 -0.8154152211418058 8.118210504821205
1355 9.426658744254638 0.19702043951589054 1.5194543027319711
1610 -1.3574315678467344 -5.302106237806321 3.572094884471101
5 1.0678403700030843 -7.796878253398864 -1.7240131405483101
1409 3.4695333699368365 -3.7433688622147785 3.4939180391214575
1897 2.4018037569331234 -1.3561007941332803 -1.0709613525558244
2066 3.643753900090718 3.151270471977547 -3.49570768331487
828 -2.6462052338591664 2.293133363624068 3.539506099253664
579 1.653774808576271 2.1310651909603626 -3.171499309222215
537 -2.2239727815371158 -6.403271051796506 -2.4573123219971267
1531 0.22844185232735278 2.3269381894347902 0.155813123471464
1248 2.336910493111303 5.786870873572846 -1.663613151647694
771 -4.470397815211633 1.1990210932206788 -0.5739557252919381
146 -1.2317992277644019 2.183397862309633 5.432837927699679
1118 -0.7853131068108289 0.8436638668822902 5.235416800519128
2014 1.7746232962017015 -4.143502181495877 -1.774408369091398
139 -3.2436588604737597 3.0098081356864257 -3.112933323235629
852 -0.715805638338733 -6.113123913208087 5.652923138401316
776 -2.8030703703456625 -1.5509696396394401 5.671105210050075
1798 2.614565336678473 -9.17218023252327 -0.6860893946706574
2022 4.274255382308818 2.1836330385239275 2.061150664366397
491 -6.482329961060492 -3.233444110329442 -3.4590855563478615
949 -8.16930256347437 1.2186412836729459 -5.014753990409593
1182 -6.719572276819069 0.3268503947315394 -8.040981397746606
950 -0.24813752985966542 -1.4688506369046153 0.3430011983860943
615 2.2513996641250507 -3.316356836017903 2.251417924453435
1847 -3.98376636745915 3.145730162856255 0.27111959659176477
1959 1.692444298870562 1.5347478026466201 -0.13328033516871313
886 4.357834366486307 -2.2581377626348167 3.880133183107367
359 0.23849253242226484 9.695162556232884 0.7022078802737703
1220 -1.1589501714080879 -3.1340687763179957 2.4297563267887194
232 -3.8800260887115035 0.6054269272856231 -4.710883175326648
293 -7.120298151750526 -7.881884197597106 -4.1864506098318985
675 -5.621081326589882 -5.432592459419112 -8.599440827757933
489 -0.12072000003105046 11.375526821765336 5.314280928817117
1596 -3.931098316910578 7.996960498097453 3.0866416217441675
2155 -4.49713764106311 -9.013706081312893 0.6106416860657188
1756 2.8238702757842167 2.194537669476644 5.8401576852586965
943 -2.1450834428092436 -4.456802743543246 -5.084406520199431
1426 9.188782954206765 3.0832984413487954 -6.211974852026773
940 3.785583810536895 -1.8946216689659017 -0.5374815934533064
383 -1.5330027125761432 -1.353797493643078 -1.9394653708272436
1142 -1.6473554930394174 -1.0626988131088984 -2.7185634025109433
1302 2.291216292159623 -0.9414715351945441 1.5805477167654791
225 -4.167899984669399 0.9373090242045752 -1.114626570872355
500 4.737134704209273 -8.986774064542976 -5.5892293039620595
1027 -1.2943358091362334 -0.7244498414047092 -7.560138898291584
1210 -3.224545367285292 1.1815923183659511 5.618565882165862
1340 -0.7667200110523492 -3.0217338779217044 2.764864829901485
1825 -2.406519088578613 -0.8953269799267602 -4.81479250057118
1624 -3.258201858256865 -0.9528007759311815 -1.9057288685811067
2160 -1.0085103739488386 -3.835556514046769 1.5638159160136722
1051 -5.6016278315606 0.20749523025389272 -3.6188001077954963
331 -0.7979330148785809 2.9886524239814647 1.2925978882728508
1659 0.9789596939689698 5.14376940594289 0.7068554476007365
540 1.5858796644154338 2.8004436393544134 -4.7204503169085115
466 -0.4676796333381629 9.89019675074124 -0.6236036325564084
805 -2.4401991188060532 3.4338709565416043 1.9985254027659196
1661 -0.015160390198529784 -1.2063986343817077 -0.29908513683440296
28 -0.09039552272934512 -1.6601684517337238 -1.3473794422746983
1337 6.6888634357949694 1.4763745924194511 -2.6142474817841554
1009 -2.4100960930926725 2.9813938702652445 0.44128134594637247
1127 -3.475096326162487 1.7396301124114109 -1.5605914776366703
69 2.4420176170727528 3.1088077274135566 3.466966393083649
1050 -1.4636561086548887 -0.053205649925627894 4.763595117546571
714 0.3749535528317606 1.4095200267945704 -13.828654682152418
2005 5.436209579390618 -2.4135017006595447 -0.8545931807444225
1537 4.295728041764057 -1.7757473766016605 -1.5993834486473446
509 7.818977260603956 -0.43926079548267766 1.4241794135141042
45 -1.9439784852080808 3.5548408906388445 -3.318747807817499
1589 0.7962029959199155 0.15423585702146683 5.092009011225312
51 3.124891408534078 0.22626829050753827 2.3296171223156645
917 4.6478998663171085 -0.3732631401021523 0.8718207091329354
381 -0.2605551864824111 -4.815756301778597 5.020060580098676
1434 3.798534509775118 3.4338497830230486 -0.8448394901499772
57 -1.955905870875274 1.9402687669321805 2.6221703719422176
503 -3.0955383104327425 3.988232611082668 1.582551766670561
2036 1.822807813791557 -8.038656077007309 0.9534160286490808
834 -3.496042459005494 -0.8632501553373909 3.501663558253206
1407 5.862894605596029 1.1755355151977451 0.33477901051121267
815 1.107639480610293 4.343794221521202 3.0503314401019277
343 -1.390638434476472 6.850237800395323 -4.000508406565653
100 2.863214881907005 1.5616175213306345 -0.4546066328730528
785 3.7705138802929574 -0.713820031558658 -1.2249717452762185
1033 -6.948307263473309 -4.36131957607862 0.26190899361991155
1882 1.4136603583985818 -2.2111851145771 3.9229596937925835
1221 1.3869666298976133 -3.050963851968958 1.162829989111682
1159 -2.350062182924041 0.197765965274429 3.3606751877311125
1839 -1.8479463338693307 0.8687632300063566 -0.5056761594684094
421 -2.2160026376040736 -0.5224466518568144 1.1104763440605616
166 6.372783940167879 1.228412016384084 4.47835186732599
321 6.550035091627108 -2.482791059892383 2.545988446589496
138 6.436051803298327 -2.2710954471790243 -1.3828467177027557
435 -2.663154163225026 -4.606894360058577 -3.4196931762936806
1134 -1.4412487833556498 -0.6051478333915022 -10.784640563757169
651 -3.9977238872407166 2.1866386326833873 1.0142237053492469
143 -4.6010399812818905 3.4301149139148492 -3.205560234117266
624 -4.48695779888784 2.719675802108839 -2.4456348280149034
40 -3.9371335276835446 -0.27702591537807353 1.0809507447155071
1508 -1.8283638366320374 1.164549459969706 -2.135474515377076
436 1.864728839905577 0.17743345925070986 -1.0116909638833165
619 1.1340250991355783 -2.490488549145623 -2.9088515684315057
267 -0.34722570617170473 5.051876112055929 0.7200133264030186
539 1.2816374655462146 -2.9682376697991906 9.132161118064253
1481 0.39935734175283943 -4.963362537372702 2.13249129899473
153 6.259164884241938 1.9568966929066602 -6.301804918314769
922 5.421554635212915 0.6323829271885824 2.382008683936142
1158 10.917275166080687 1.2471601398965708 0.0072374817039420085
1918 -3.0060745840390224 -10.309752091619002 -5.92864675702093
230 -1.2866324639771143 0.1969220159388901 8.71807826187021
194 3.336343774508521 0.5027576446963764 0.5308417477476455
903 -0.2340120885015731 -3.291564208221055 2.3705477832401507
1755 0.042723144444020394 3.1059366433021576 0.4947928104905068
693 -3.4019249714783477 -1.4616482035924558 4.176491396189875
1318 1.1315022797716312 -2.7777439316435673 0.29482727844897266
263 -1.4503759671450858 -2.7344138749137197 0.949808302281525
1986 4.096854167149644 -0.22136631889127834 -7.975300656679539
735 -4.107060659968896 5.465212658478704 1.8573828597676418
2078 -0.22483709953331626 3.4966703689178047 4.896086778611899
1101 -5.2023862568032415 3.9755208984456307 -5.170228815440636
1052 1.574842643285199 -2.9731817232541022 -2.5689415055416833
123 1.3787268057442703 2.825355222189944 -1.856698269825883
1391 0.26765319408858773 -1.8096000377329196 6.8992588810040685
1970 -3.0667124624181725 -0.20059738834780685 4.816400928689624
351 -3.8312677525449708 -0.3818349330401624 5.496184345483599
1748 0.3119334341562255 1.3593095728654572 -0.6147136220502198
176 -1.4156930181361962 -1.6481249133991243 3.361478308106748
2083 1.8366478479929582 -6.8299286514730815 -5.843102007177885
2009 1.4960294061653594 -1.668525460102433 -2.5460677802516236
1242 -4.777605256779169 -2.6524263678928195 4.520742252578286
1233 -0.5496639125145637 -4.1774556815697546 1.8304604982459645
741 -0.668078500450175 -3.5038822836023447 -7.675489724835606
2016 -1.7619775307958288 -4.477713368759975 -2.186062059265126
459 0.641131374855213 3.7882697477364964 0.237409481134156
1533 0.05351457222079583 4.100757106642947 -4.794492344635896
512 -4.517360173961652 -1.2247698709330814 0.1721789424219628
1094 1.1545225450023828 1.945969711798617 -1.470009135486318
1037 1.5529157216591218 0.964426767047349 3.3858847573940203
978 5.552320203913477 3.0237115491296684 -0.44159055690154037
1369 -5.541726228151299 -3.928187787138318 1.0271773169269618
1168 -1.9696070955195137 3.1762183253781946 2.507739322526808
669 0.7406510280795523 -6.602536990619833 -3.33139888092434
1229 -3.3876062092256416 -7.849686489746423 3.0085690444074182
918 5.963758788589722 0.7185708891841032 -4.257501012237451
592 6.325481161990344 -1.5636032099972021 0.42982143956644986
1858 5.402895442558087 -1.428384823689372 -4.754787456166764
213 1.820829780420245 2.151314818917985 -0.3031645993120314
158 1.1823889391701472 -1.7778623366001152 -3.351919965246184
904 -0.6028971655828422 -2.9626789626301813 3.0292049253960256
160 3.8947276108407523 0.214653224906499 -4.474735103991431
1651 4.6248131526901295 6.1336728751203715 4.4003302146816345
1687 1.5420677192894483 -0.9158470420940076 -8.447481945383306
1541 1.5526915656564857 -2.797183424679953 -1.3752621711901398
242 4.68487148360836 1.5163695529658134 -0.29460644868557384
678 5.710967875601919 0.12131985761823484 -7.64911529320615
773 4.426319779789894 -0.4186130172454963 -0.4207837598565008
1611 -3.03833441299559 -0.07456248735600601 -2.67148210940891
696 2.8577627063114086 0.1910211048751711 2.4779009232998934
1714 -5.245628202601247 0.07592924325677036 -4.175165988309352
308 1.1176455346601555 2.849988062897738 -0.639753626612641
876 -6.503609119442553 3.8881792405476365 1.4726128893782693
396 3.434612845803625 -1.7083122524666243 2.2399403087413616
1074 1.213184251621379 6.908519814549619 1.7749008004674613
1896 -6.631487273855483 -4.321226804702768 2.5823174650116276
1891 1.0095933769793937 -5.451822642256348 -2.8164367696543415
345 1.1434889665443304 4.47627423916577 0.1926561595641077
746 -0.6203038699777602 2.651446365637997 3.40983425184619
734 -4.912863176899823 -1.472860709206018 -0.6834527785023804
1325 -1.6025656917555013 3.5873174782070136 -4.893460181015894
404 -1.8389048240804458 -3.709117441263338 -4.684356318476083
614 2.715288251118038 -0.15084853281038654 -0.40179670995021344
499 1.2128975421046166 -0.6318958355165416 -2.9499319860185964
174 2.1045736444438843 -0.37377909071496646 5.016853264512999
223 -6.523050860057991 0.673262260952984 2.4511145995201606
1035 2.461630435970963 2.4850737176373237 -4.880937338845538
237 -1.974105398389888 -1.3616444813710231 1.7404772706594582
508 -1.9365444354669676 5.806136066647562 0.15244504763999117
141 -0.4438451142380034 -0.2504942231435933 2.6352252733594517
708 1.0740907509161242 7.036088667103421 -2.5412977048482386
1130 -0.5450411933603044 2.8112029513934083 4.8590313903401485
784 -2.812821790963046 1.182259516279786 1.3588908921524585
502 3.298990038311025 2.0284027907031232 -4.715628894251359
542 -2.7661576659426137 -0.4797032458134359 -3.7038517679180947
622 -1.3449767179623071 -4.621069642839629 -1.6450626200057514
1654 -0.79830975226052 -4.73487343810221 3.6801161492578447
2062 -6.959774175496203 -0.20510321999976752 2.139834075263631
1695 4.283790670748393 2.149024406280373 3.284429447864091
2111 -2.103957073871138 0.12501367664540475 -0.36669728180677363
731 -0.5104674618951845 7.126157014186063 2.5409404917887266
498 -2.0569721582992946 3.8369597474266772 -2.934105657088303
117 -0.9941064255258327 -0.7462882559962926 0.089067729885067
1545 -5.0780222649174656 -5.610269272949961 4.0740065246402315
167 2.1030217817540917 4.439041916431063 5.360294407954624
590 -3.0880588190194698 -0.506282596091068 -2.7700509347958637
2076 -2.573419350406686 4.256375246182953 3.382045657844592
1966 -7.372886695115444 -1.659109939756406 -2.210928533118024
737 3.0604200928383576 -4.4971428093096035 0.6426194377547252
1688 3.1376695575409346 0.5685634390675003 -7.900299112737885
910 -1.9378085500129647 -4.430450643780339 -1.8991035698418572
1160 7.853532776258197 2.7802012165471828 -5.4317226806483285
1218 2.550829067285787 -3.284945961974939 7.727894156608892
1976 0.13399968507236037 -0.756896220639967 -2.794307147999805
1994 -4.398946089868048 0.28382428425616724 1.6269943730539456
2053 0.4049394906967173 0.005813552740733714 -1.9276763890498454
1138 1.9014804564701553 6.066953617552514 -4.355907948274903
1203 -3.3206014828913437 2.819621757751946 3.4553009866616966
586 -3.521227061476442 0.7123823168645382 -3.1286629863836755
2013 -4.010893716326487 2.5624861652603554 -1.0880055362751055
1345 -1.4137117005397877 -0.18009369229906075 0.7425412651787501
458 -0.6709355409633568 1.036157122550772 -2.2573166338156234
49 5.152063728332015 -4.068305795823395 5.333384949675286
1926 0.7946527379320201 -7.265854350956709 -11.292441962551045
1594 -4.4341770091408526 10.557376819802997 1.043810292699511
20 3.411689988791206 2.935199391389547 -1.932940533255998
1301 -3.8517337521400536 0.5531998416091126 3.588966942564471
322 3.337311148446559 -1.129054809343622 6.791351618143555
315 -4.122814839889064 -0.8021004574605765 4.980423375398746
1863 -6.877323238320556 -0.06376081621214555 0.1548527889915194
450 -1.7256378003749036 -0.9094570550872491 -3.538898109704148
1161 1.8517788966364042 2.3151850521761004 -2.896969418271405
864 0.19761442681622446 -1.749507605241087 -9.461158667929304
1256 -2.765108130850791 2.061541295438706 1.852261490051257
1250 3.259614076086603 5.058043145515761 -1.3520139937588052
1636 -4.010854144744062 2.1701092431707227 -1.1358391125109852
1903 -3.875858125486992 -0.2367915487783214 1.5135951012601334
775 2.5514054811211806 -4.621536603692444 -1.7590692409175208
929 -3.244711895943505 -5.536687039663359 -1.7838506492856727
90 2.191389621148137 1.7188140279866266 0.11400055981980556
1935 -5.308592510239248 -8.075620607346833 -3.6791286393192975
443 1.7148811418638534 -4.774824029301892 -2.5456837645570225
247 -1.6302394983679873 -0.919867094592848 -1.1741241556170332
937 0.4306190406353138 1.027855932197239 0.7532655353396067
474 4.10347614779467 3.1398310050581943 8.78656252193516
604 -0.18845448309641888 -1.7369756632956188 5.369354418333342
1678 1.0075845643018304 7.394853221284119 2.0327040841796653
808 -3.0464051644666923 -1.2829319891005542 -5.007532995522586
549 0.4245249556658822 -4.827990123033029 1.158997957997713
585 -0.26267930246082855 5.191555303647739 1.7602869954476084
2037 4.271128877711068 4.036042528965642 4.72262697878755
317 -5.30866524069963 -3.923407141714294 -7.146833987759556
764 0.9801327703526777 -3.927765945554365 5.839461420001091
65 -3.537526706572952 -2.593371068369734 6.003862427369287
699 5.238426794001617 2.544613696025078 0.6115792120849359
984 -5.086761966313358 -3.1435472874555233 -5.78461585742691
229 1.3418195469781153 -1.4726738981859517 -1.6628202110520185
298 -5.16021089407854 4.2498151849348105 -0.9971292013384524
310 -2.164975997556938 -1.5513804341339776 -3.2953534272480582
1085 -5.161125660984333 0.3111924227130544 2.2182012569932312
1806 2.3822844915692962 -0.5950900646567723 -1.2527424893582182
660 -2.45691805631573 -7.377599299347016 -1.4818937865375774
1329 1.2815082443426826 -0.7252695595842531 1.352121303579808
1354 5.588615862200793 5.286217759917467 0.35471285185003537
506 5.94335389692405 0.3049630176481641 -7.026130134246175
37 4.933824494433164 -1.9641841849066395 -3.568345061160765
150 -0.48927811334129157 -1.039896995827444 -1.1469035767834006
733 0.48687888495996356 4.877590669183573 9.551806201163322
16 2.627237142817978 0.13187632232353325 3.350852998741525
56 0.04012120542547159 6.767566290081859 1.59034451246629
1352 -3.501188265532808 -8.035780286554477 5.542781795128274
319 -0.6002437324992776 1.1829557744006252 3.5440043669821097
469 0.938362229078498 -2.9253254077510205 3.5640952739058807
814 7.378829124567978 4.479712010161937 -8.160830251169996
1417 2.8570952669858323 4.184780925545029 4.708323392429316
329 -6.548642302028522 2.744645854364279 0.21865746104220704
1677 -7.433061484562204 -5.098808984548477 -0.9137711919577279
2030 5.151264044098478 3.310674754237804 3.3234344673092506
1097 -2.202015099464308 3.8688699898328025 -2.5572379754197208
1430 3.012762811156765 -0.08493609635292272 1.233479159448948
209 5.044663397441015 0.005712213834950344 -1.803453336235825
1668 0.7784374094649992 -0.1477844885815713 0.5608747111948875
148 4.2611583568551845 5.309231881557463 3.1383993617431623
348 -0.3636559523602287 -3.9662274316690795 -4.406952666795557
2042 0.6659547303885894 -5.2577442367388 0.34856034779118844
111 -0.37161309509897544 5.114785110275137 -2.854029845629837
930 -4.597577037054719 1.9756529866596055 10.775520072246682
1381 -3.6122081589969213 2.0912762455086096 -0.017169535192876697
2072 -11.002295031103465 -2.8210249388501736 -1.8902074688463004
2089 1.4882802206450403 3.795285842709605 1.45746853181717
1170 -1.1456847817082947 0.24809625838092567 2.1616767768486445
790 2.616645226597996 -7.281910796520919 -1.4984940725913058
769 -0.5734139825641936 -6.064281161569065 -0.39602236685677
1698 3.6225157906950627 3.058379601105726 -5.56991541391025
114 6.201742085455125 8.37937543535604 -7.806439124915398
2080 1.8049565480748653 1.4785623516172317 -2.259210992270792
912 -0.7911982267416526 -2.788591763862557 -2.001595165117704
277 0.3573590217513439 -3.970064192131942 2.0242771943336137
1615 0.23398043993205983 -1.4854449587306586 2.6514698781539963
1703 -3.611287881471181 -2.035382173848779 -4.8904008870141435
511 2.664072523546581 -1.7664695988762298 2.786786782106911
670 0.6198879759563897 6.244643155976164 -5.367363866177555
882 -1.1980468557892925 -9.988919283945016 -10.425821157868922
1067 9.923736858480714 3.908948026977716 1.3273545940148987
1191 2.581755726065028 0.2637388985165892 3.581678589451677
1514 -8.271716575489098 -3.590662286427366 6.467403138841533
416 2.2909751403453074 3.5222242131277652 -1.3868427134593047
1717 4.075966318689727 0.4556989461644773 1.285612369003869
299 -1.920347753831249 -1.4911357543265555 -4.4271310921727585
603 5.259854865204622 -5.581901573652854 1.1244718945680885
116 -0.17703908150072523 1.6820999594468615 -7.789801990035462
1645 1.4286643264711654 -4.293354417117326 -3.0976034874466913
2063 0.1337438961014437 1.1872402002049145 -0.5763239087766414
1244 -1.824727989372763 4.64547442155778 6.4579166083585235
874 4.565324887742472 2.0974078944657117 -0.7222369510362915
589 0.2907397040490261 -3.4514565454240147 1.0961551620666252
745 -3.053725498609365 1.182547847695652 -1.376381953923325
1952 -0.46526655811950335 -1.0299352063721892 5.534828566291346
582 -0.23726337902236033 0.928009875300122 4.314470276235128
713 -1.0189944173624836 4.281667206391974 -5.295602740117854
1690 6.384907163260591 1.0007999503009848 -3.422344118335725
1423 -1.2667964759710615 -2.456159361535284 0.3881538587103673
1512 0.8861133390718052 3.6488260765086644 -1.6062428404994318
269 2.0663999225537473 -4.955094607679518 2.6545014112130305
905 -3.281583888615048 -7.601741835283188 2.0961653409432057
700 -3.234492616924857 -2.4541560803068614 4.986168694765964
1095 2.8365077697104084 -0.43371311818758035 -0.7258573961906218
1667 -7.593003812975104 -6.774160700295199 -2.6309094396108237
2147 -3.765297278165485 -3.6294134606443325 0.11237081098448357
1253 1.2089198844412892 -3.9917387209693014 -1.8758185953290378
2065 -0.07868549636659061 1.9267835351724605 -2.3520249518141365
374 -3.1520776856464847 0.6841084422763916 -1.8095501920513717
476 -3.3694648585321954 0.8377208411266489 6.064978892854549
804 -3.0883748973072094 1.7201749325716664 7.774116599311266
858 0.5485132839107006 5.681650115838166 -3.0351056124148026
555 -2.75684884157916 2.054227716641382 -0.6237626120821885
203 -2.011635690847687 -2.253402759536693 -1.2115146231112102
1911 1.3034576296770912 -3.2542690801839402 -4.747515547048526
461 -1.1428489789147873 0.9542154426563412 -2.3923790481352962
665 -1.4420696916891942 6.57139522771738 -6.1854862524402865
112 1.9283247485377657 3.2245126886386557 2.5682567650604198
121 -2.3693274018183956 -0.6347374124795387 -1.9597693095464
645 3.64781201075237 6.887651910362532 5.900062429374697
17 1.686323847766994 -3.585592642972757 -0.42181054237804494
1506 7.614946431782426 4.924686727948378 -4.3965579676415985
349 -2.904988477832086 2.4092512360336213 -0.3617389737469079
1179 0.47013992134590665 3.116187614671395 0.7974288530134855
1716 0.7564807426307978 8.794318039424892 -2.3037655212879184
58 -9.59896284092027 2.926806193780527 4.634498456895931
1282 -6.217644659761703 8.277678491984426 -1.3953640289399432
1745 0.07616022654625682 2.573322915199414 0.42849164735753426
1790 0.8985327738833578 -0.9325242576809779 5.38674256697758
81 -0.24387135079800581 2.892589897382151 -2.7293188919134312
1011 -0.790859143553085 -0.9888826861072524 -2.1817829304612855
1676 -1.1374819988421465 2.478435812849692 1.036055587171238
1929 -7.256728937113484 9.794818338044168 3.446011859494107
1030 -0.588055354651813 -2.0177303484874716 -1.359324205761687
962 2.336051924390499 1.9871868041498952 -7.790684401298557
1331 0.39593502254163415 -1.4669104017440087 1.0066577968570585
133 -1.2363087867257911 -0.9829603454897612 -3.587576336800879
572 2.0622930837566606 2.935941825934145 -5.343459915104465
350 -3.835375873446255 -2.531812793676302 4.630121659859219
1871 -2.3645283010983236 6.795953161908263 -2.075429297794615
1633 -1.156555707491081 3.64499773496703 -0.3706325227234278
370 -3.740101683810812 -1.5504745277923402 4.463869084729731
83 6.006882713699773 9.007910754569382 1.0232699746641911
824 -0.7576976679964516 0.44654850775627486 1.2302823258973539
2108 5.435938829569862 -0.8187320575724955 -2.9886627108855413
78 -0.878321497691599 -2.8043187488067276 3.4447185356189154
1780 -2.3060666495315223 1.1511464920047745 0.8474102035665856
483 -1.6764232405206902 -0.48039896879221416 4.937503638591561
259 4.954255859760987 -4.419926329691325 -0.7564869611328457
560 5.26858625563708 -2.8717810681717197 6.703551671907149
1026 5.014873375219954 2.098505210871003 2.5006364922501567
193 2.0786097146911318 -0.8410304606946736 1.2475348780640578
911 -0.3530533953129209 5.664599276388408 -4.154482486918771
1309 -2.271061493144677 -1.4945327081382416 -1.534209638564695
1664 -2.3531856042034405 -4.208801743770393 4.428175649905207
54 3.2733924533596923 -4.0039135257242915 -1.267044516707826
566 3.5973713450052545 5.199426256414746 1.2874605488817337
637 -0.02290400513963724 0.8570107795871125 -3.1878952851649927
1175 0.7023911715258326 -0.5552911855084541 -5.698990032270356
1699 -5.929253888265348 -1.6735098201480934 4.041504977782976
1276 3.4086661755513434 -2.07618460930716 -1.8085105599065043
801 -1.134702318699541 6.630320763060168 6.685695364313002
970 1.5668745392889707 2.264201358609632 4.513504207326611
2028 2.4964843047372374 1.683461067441569 -3.0555182125921174
1347 0.10941076427913679 -6.423955985235465 -1.624530145240724
1631 5.004404908019065 -0.10427202381152342 5.8796303879832665
1489 -4.135619853783383 2.1280257963425946 -1.100454660468116
1279 0.5342961183944038 -5.887772356824967 6.964527497653387
479 -3.387991223733641 7.206466041496907 -0.16566705246266608
2144 5.345658389894285 1.7869286550124128 1.1484055066542214
355 -4.333117684362553 3.190841555544236 -4.738840643446853
1232 -2.6313453007044956 0.9224753570670378 -7.579752304349689
444 -1.7506589641950627 3.9308593056053995 3.8407299693559707
896 1.3699519107369045 2.5205334882549146 -0.744372128887537
1192 2.4158849517323966 0.0618137895427725 -3.512627916254052
505 -5.972900363951279 1.0620567216875414 3.1880763061202857
2106 -6.974582843804988 3.106742619510375 0.3036967255976381
61 -2.3582361870647874 -1.0994936440930052 -0.1978878223048255
1288 -4.881825492058688 -0.9488621561084841 -6.04415302890785
2079 2.7255264941713544 5.078545905206745 -0.09592296155832086
1314 1.0345983062696853 5.417028826191697 0.399972216586599
836 5.996253480262432 3.320199106005544 2.53986829318212
1128 0.5297990142880299 1.293686238059456 6.30330965722986
1836 7.5909116701353145 3.5592488307524484 0.6727593587108848
497 3.613927108054887 -0.13153126178588528 1.117024969392257
1555 1.0454997071175953 0.2826494767332866 -3.4728769610985917
1939 -8.36806033202961 1.7505226904024074 -0.3766891680301005
1765 0.41407595583151463 0.6840577345420314 2.0731900891918453
1209 -1.4186562326859973 -1.4978671743442848 0.1578724652411287
1029 -3.8559996449277874 -2.5193828851080515 -6.347859773040179
548 -5.959022771290404 2.760569583512035 -5.540899757027846
639 -1.8494378451514681 -4.3426432911434185 1.7703917544255643
53 -1.742290817668747 -1.2301434641355375 0.9038647717191713
1225 -4.552680216776985 -4.469342222555863 -0.6267060882815149
986 2.1097624017695322 -1.266534251961102 -1.6074488259790272
1135 3.703061836490489 4.160051844173588 -3.729511412650807
1637 0.06783472637843908 1.8576448223025988 -2.801151651218596
454 2.8624527968791016 -4.973017351543876 -1.7434734560140335
1197 -1.4502243766083966 -6.707632245608805 -2.108084080194129
1427 2.6017517051721395 3.4634296886159586 2.092895500542161
1133 -0.7600730935490488 -2.8390260192755674 -4.363154826594852
1363 -2.825762695835964 -3.021931031016179 3.5848923770460113
1173 -2.448981219946484 3.5809429389651126 9.546305482335264
1249 -3.102808990310871 1.2566376018628913 7.3647080750431515
822 2.5021546343659993 -2.1240217266445045 1.6904852181251124
88 1.9999285964573263 3.358733936117896 0.22598544037447632
533 -3.058088742493363 0.31297827966701414 -2.982601028148272
529 -3.474423400792908 -1.3397968301456509 -7.210314322861117
336 5.647267513896112 -1.3602454388685434 1.310735551234435
2131 -7.553276999833539 -4.017655142846684 -5.336582358264721
880 -5.828151868473477 -0.6656308734427995 -0.5242259837725165
1437 0.4657235923174765 0.6693625649557807 2.736827666987635
1587 1.250448724416253 -0.6645843155719602 1.1365300424835114
1323 -0.4175330958484787 3.054002352744096 5.546092936746136
1881 -7.011725429503627 1.7519699880617827 2.059854161398035
1322 -0.43193402436398765 1.0457991739991754 -3.4193696389458994
705 5.163740368213155 -1.7108482526820403 0.1582854465296258
463 -9.63058545423623 -0.16172287994702972 2.5407741665236636
897 4.1593750248186065 -3.2460153495007535 1.493907318941233
1927 5.589654178001632 -5.510784504337303 2.803178363440696
304 0.4416879386191105 2.9115854393350427 -1.6523369124535212
1575 -2.0043062752872673 -1.984519858845194 1.9207405203291612
644 -1.1008570251050185 0.9039510494385622 1.5997790262547043
1808 3.8823591646050466 -4.057605277148554 2.7718844984956292
972 -9.965485238394434 1.9054085102220195 1.4963935436005125
1039 1.6207795432394034 -5.6382558306684825 -4.751665283536876
816 1.206728715851733 -0.9035132224087259 0.62780483052697
862 2.160996132944284 -0.7368969769408816 3.071189106382996
189 -3.1235521511342457 -0.12810058832186433 -2.783779929637774
916 1.4062256919087415 0.5676471555575819 3.8818508807602323
1310 -1.1542675163476266 -1.288307033769118 2.121462666450915
80 4.6784741557442455 -3.973803496040762 7.48316435345447
927 -3.5757718205442073 2.144640791209097 4.950146716775543
653 1.3220746988589889 -1.0779229670104282 3.14175973917131
2158 3.5872484771189486 5.052622061125735 -0.10680296043418912
1150 -2.8825516373865234 -1.2707663610983377 1.167047512972521
280 -3.2751393326328038 3.4786847252608672 -1.4687266390798377
649 -0.4593631849463839 3.7128678580008385 1.2669407447357066
647 -1.0646615335330674 1.796671849528746 -4.226487855680031
1467 -1.3089109717435383 1.0520763908209172 2.1034272262683977
1987 4.709569326346437 1.3678543256647144 1.7359140268748479
989 -0.6565644487928892 5.580576521271678 -1.9749581430751262
1313 -0.3049268673564275 -3.130033102908026 0.4820147206484002
136 -1.6740926909081537 0.3792463776961805 -2.5404280794859884
546 -5.1519747769053605 2.196441750462726 7.3053891614622914
1834 -1.1576641737761648 3.0600335003490504 -0.9108440893731037
878 -2.0300136179611514 -5.386215273449457 -1.086579500073325
819 2.336445235990933 4.194730128689626 0.6232068203421566
465 4.382588059637157 -3.3438350884911054 3.077132934894243
1404 -3.1355723462177885 10.256212649227374 -1.581732020762013
185 -1.5944654181377649 8.676524114276711 4.394274878665931
1770 -2.630615068609006 -2.033670453414762 4.352368009903288
760 3.035533090095894 -0.001231284298878053 0.6461508019380717
1727 -0.8854630472193823 -1.8930496572188147 3.711385470095028
424 -0.5652760075122554 -0.022810614598193665 1.6821053271001212
1188 -1.807704334843106 -2.588363989706763 1.4656847713999568
915 4.704530533983434 2.9467007707029444 1.670771974075046
914 5.981974658103495 3.631896568313151 -2.025232491049268
70 3.765570264545723 2.138693000781794 1.0763216625225154
680 0.5460687917425918 1.737941210455286 -0.2673204311407573
2126 -1.5704608296795328 -3.1326898165264265 -1.0921838495503178
2134 -0.05704416160926205 -1.620507191263526 -5.93956803634823
996 2.948055206450596 -0.939355693724954 1.1721396619856166
1008 7.671295918508196 -2.488698460364022 -5.497878763165865
1358 -1.056885163841176 -1.8588600095616226 -0.21679741196887323
19 -1.5904124497334973 1.8712105707118356 -1.8959166632612856
609 1.8156542270678924 -6.773602287515449 0.06989456207019512
1185 -0.8230496936870138 2.0779762945021485 4.091352228172936
1766 1.1915933321793422 -2.8567128022786266 -0.2264815190998347
1559 2.5711492765611355 -0.34030993387090513 -0.009419337944514791
1341 -1.2353081501091 1.6052511933828542 4.11789149129453
1923 3.348239096446308 1.0979644159141275 -7.89535674569133
1597 0.41260649892937445 4.207113843942352 1.275112730899631
490 1.620246009126702 7.060987585588485 -2.0853191031651708
1969 2.4395027452593 -5.798525185956557 -0.5244079186042505
1546 -3.916398152512216 -5.290972551790682 -3.637631851646753
1842 3.0604528001815825 1.0662449963564116 3.383157983073874
1564 -1.5986193705543168 3.82385324865623 1.3787341520104621
385 -3.1899314134055783 1.0585618387765927 -1.3262062484181152
959 1.2272038820418976 1.7782376064091874 -0.3790383808588323
1473 6.794296086138981 3.160953208217645 1.924519189486469
968 -1.700729570659867 4.757450140486032 -4.248065357428919
691 3.186639861197853 -0.06544653815501947 3.9007972261660235
1196 -5.918839608152974 1.4232181031379574 -4.529945543556427
231 2.2839331701219985 1.5248014918123798 1.6114126293923516
1697 1.5169200050894929 0.11828579454943496 2.325278083474576
938 0.6086751384189191 -1.1488893178518498 -3.715343944110538
24 -3.3801563764141758 2.6781727826406736 -2.303233977734357
281 2.3712171939912148 2.2885254253256497 -0.47587465699189685
569 1.7107028193637028 -2.886727127560103 -5.769551578792244
1539 3.1532802518821037 -1.8917567835295201 -1.783761239355379
1669 -3.3115873704123184 -2.3556889746641527 1.5748411315819328
1007 2.5486089074455682 -2.885121737964736 -2.5391747419575665
487 -1.312307056904404 -7.729639694083074 0.9878737217913975
1749 5.519485184783518 1.7361372717816876 -4.074636156934383
236 5.582950725719234 -0.8405532637616416 4.577632894382849
1018 -3.6376325596094117 -0.2597109642611282 0.4858939685352142
1823 -2.0219829998417107 -3.041658182033944 1.8391275077023834
1227 -2.043386451325968 -0.559232118834858 1.2036413062819071
2069 4.297278756256713 -0.8194238920924919 1.1748257635120267
1334 -1.2203570210302008 -3.0200380040524686 -1.9943393379732057
747 -2.462621777010729 0.02518263364984124 2.5118623539823144
238 -8.372417010361433 4.7542150190616965 0.24081379997401373
327 -1.2379858874919225 2.0957972108401086 3.599233554348604
778 -3.831533715225481 -0.9141084121683657 -1.5789154837618915
717 -1.226402471645765 -2.1515566546386546 -2.226903299717668
1655 -0.5349657031558264 -0.4837554092451883 -3.1085624317617886
743 -0.15368636258875848 -7.390662002230001 0.608137681209927
1414 0.2512243065917399 -3.8060214718742005 2.0473103253141205
324 3.208999939710095 -0.6439886907056254 -2.6838147112081505
1731 -1.8865120947947442 1.1804530457546019 2.6291257091791094
565 -0.8307474470882856 -1.0972309604200123 -5.715570116277059
1339 -1.2178438599566974 -2.221528557795709 0.2099705427543496
1421 -8.686212120022962 8.408438806626206 3.970930707545977
413 0.5807868761973045 -2.284111090510679 4.338399211329717
843 9.433481928758681 -1.4684013581913624 4.5255108108337305
135 -3.071993982449088 3.4119397987226816 -2.4635085814012276
2000 -6.122070266714547 8.990597393669207 4.439807701808617
2091 3.3339807818606197 -1.5125819692827784 0.8195913417246983
2045 -7.330423813200223 -5.407090595548333 7.902566670613526
1831 5.05934720374824 3.6729373632566533 0.20914073682382742
561 5.6261329324089 0.2937756478165661 -3.9183408040363035
108 1.8903304269022951 -5.180815952248875 2.825127184276313
1092 -3.427626344166453 -3.0354561830693214 -8.74068192369191
556 6.72241254100639 -5.414768373236019 3.5104270823643677
1422 5.116013238268077 -2.267747901565725 5.350797000703809
965 -4.478355688714849 -2.546976725720861 -9.889207350140936
1675 10.654945511708995 -2.211397813346943 -4.755649098350047
1665 -7.7266797484641625 4.5214101848549495 2.543782719482646
812 -1.5081763974136957 5.24361637145537 -7.60912092546171
129 -4.6777497056509185 0.6467831821290769 -6.247225519303865
1501 1.4926835374046605 1.7707034368355867 4.2516767084466105
1236 8.516441926974748 7.9943366912708695 1.0722120028976219
1297 2.050192745579421 2.6167663200854148 -2.760980547747633
944 -3.4523461622090514 0.24954647907085528 3.029407792942593
1107 -1.9677782753301476 4.340558233596939 -2.117006456071722
1126 2.2536411547923105 -1.1317225849444976 -4.401208065055874
1713 0.9107873514775093 1.4845343469815664 0.702856366698507
1204 -1.253305154900296 0.8545048280796572 4.3274532922485305
1630 -1.0524761376271627 -4.327275331143373 -0.17598335022625416
1047 -3.617744689609586 2.7635478787200056 -0.5433223403998437
883 4.774808050345885 -1.7755705345184423 0.17025868594844792
2035 0.9037321762042171 1.7900836475536834 -1.042683646074681
632 0.8563180399952665 1.0927498727074256 6.425792199523788
1715 0.48417390106797975 -2.2207670315492605 2.3773894515911915
2121 -6.244354054931454 5.172492581075701 0.7294443801382389
1113 1.173624228037071 1.8700878826783074 -7.218804010677607
621 0.8766412781344988 -0.6195249135127383 -8.425942402934375
314 -2.4380510305718204 2.5689992809857083 4.759510747377868
999 4.360190116752228 3.5678305305465186 -0.13412513770610415
998 2.247338355017957 3.9063459629865354 -0.013203374287436617
2156 3.917695814553549 3.7651725441396384 -8.466334033290222
1247 2.5371293497808995 -3.8658278009103073 0.9845981119571416
1658 -0.8589768904790946 1.7747251423644657 2.5504385206473934
1308 7.466279603260841 -4.380329783635947 4.06588040141286
1458 -2.1344461116326614 4.444345712680817 5.921207266765951
829 -2.616402023603558 -1.3043475433705847 -2.33813206673918
1488 -3.379787977139649 5.981349318089299 -1.9223104609916994
1291 5.780152166749052 0.34060634024851066 -11.43106120954726
468 5.056758724276961 -1.5226322061700703 -0.44689885012713204
1985 -0.15939370995545382 -1.6851399199955788 10.151970172816995
623 -3.348823199851187 -7.807007658440177 4.437299280304544
877 4.056029853310586 2.225893989776924 5.292830354039151
1093 -1.1999870978341494 -0.07683387778402438 1.0295767210406144
1102 -4.616438147615915 3.478542747586182 5.3642538792161965
602 1.5000300211726596 0.5164750142027631 1.9820638888876039
821 0.3278393789872083 -0.15789562112708944 -2.5278328189384975
1400 -4.087530427128862 -3.1624647872783522 2.6633016213054397
1515 -1.432248413965295 1.276216434249927 -2.6847895322486024
952 -0.28357704404438283 -0.24212857922196382 0.09597855283368507
727 1.3795568322439222 -1.8670169307338353 -7.354530918850294
992 2.5277901677725882 8.76447305981518 -0.2013223803704916
1401 4.251904227361359 1.2761266597358174 1.3052210119425849
1721 -0.11026090618597577 -2.5406181227005393 4.355307559051858
770 -1.4751333320130544 -7.408688503979556 1.8430990844809887
755 -4.490453584960551 -1.6331749251048429 -0.22183615547457755
318 -3.79906318073038 0.2965224703950462 -0.45902390212770416
756 -1.1473158544279378 -3.7259881096424947 1.0193870997633456
611 2.9248419824682297 4.086335457939185 11.6409046704367
725 10.820957469201987 3.6350628079460834 -1.1569701399792387
1190 0.9411850835102474 -0.19890326565082672 4.797401475930423
1076 4.925007251051382 0.21653084623021077 -8.21876247040298
954 -1.9382934394615545 -2.2137795494341135 3.5102556477835707
1530 -4.846016589549317 3.996975177223694 6.5129869628743275
1532 -8.18622097473693 -1.413832521684873 -2.036731463092405
98 4.101848981311655 -2.639242594221945 -3.069342890391357
951 2.2442468966186975 0.47816944691048535 3.0389166604723923
690 2.513922392693788 2.7680727212175547 1.3751351147518496
1494 -3.4893453035873345 -3.129825819853756 -4.380254290239352
1071 0.5518684865435991 1.1365632498693197 -0.73503704289595
2087 2.805263249637992 0.09222948671636212 -1.3525597556463569
1014 5.472029024001411 4.570753059097912 -0.9865182563622978
1155 0.9456390527694947 -4.067305024711925 4.688712601513969
887 -3.258591998338898 -1.4804879577897223 -2.6196017875347732
1147 -2.961504777864384 2.7384511798689504 2.3579059766540724
1962 0.40018012245089385 -3.9755580248444753 0.3428411001151522
1324 -5.549562373285363 -6.766428881475475 -6.033617049528288
1995 -4.275525260430687 4.877835936993623 -2.5778540648418744
1370 -0.9697685324889681 0.6821052834279862 -0.07888837159575372
2135 -0.1985918112878703 3.783992147545472 -10.017625410426717
967 -1.871228053231841 4.09672386642392 -2.618642691097398
945 3.919757273996969 2.272210122388507 2.72384531387739
933 -3.4792773875325205 2.7825321792294706 1.2602793940035313
1451 0.387949741944386 4.945764837405892 3.611166754113541
935 1.303218911734804 -1.6354014377810715 2.8158182038889707
1468 0.6126844015864104 3.753190286042017 3.0748322656107505
1603 -1.3766498039032216 5.0640055606008305 1.1747537421680636
1151 -1.205383521770379 -1.0537489566008977 3.101178478051868
2004 1.9968657317577665 -2.433983524935275 -4.426803888301027
993 -6.232738785567944 0.07641928109420995 1.4562524461765198
1176 -1.974502840540395 0.8308849550918894 -2.547757727099676
375 -10.377217586690735 3.753638701246424 1.2739716113963127
1626 -1.8531802236720984 4.9728452647116566 -3.2748054882007276
1284 2.170019161493616 -0.28958683663390683 6.030584810194127
676 4.866119193602168 -1.5725014022633808 1.7292728695011432
1157 1.4752886080707157 -1.0051118134134631 3.054073496949581
856 -0.4530330460160956 1.5880084258433784 2.6249472368356694
605 -1.8458474305535002 -0.49276151512605637 -5.515293199947517
518 1.3464993220747072 2.0994434029070153 3.130202423482131
811 2.6352461222389003 -2.5667249561296015 -1.3809598000283079
955 -1.7828288960830585 -0.7492732064476926 -1.8154049065079765
1198 -1.359680830456714 -3.22196635258504 6.046179829470122
2133 1.962836146189659 -4.62351764930947 -3.637439391235226
1143 3.1886185692940385 1.6155000992333566 -1.3389883679867696
445 2.730954818313122 6.459768286469644 0.7973470918958498
1493 0.15097789737318848 1.2892973995529853 0.4106184800651326
1028 -1.435199779735558 3.861703365727174 5.607143077080402
1777 4.1971172385124715 -7.592876623920761 -2.2251630491370595
283 3.7032311348923006 3.7609239823996785 -4.27298341500733
1131 4.035212488258623 -1.7102829116045906 -1.2885980336554415
961 5.773284888537386 0.8386544587367534 -1.5469114375875137
552 3.5907908953279315 2.83738727393363 6.216460693591253
926 0.1726080293170051 -2.8484427885324206 2.864865137893478
701 -0.805799058636016 -1.185835057047175 -5.752397057019613
1956 -0.11422490547523582 -0.40648565262399733 -0.5441485420235789
1617 9.909544052066055 -6.369547511642088 0.706601465292654
1286 -0.21471208019441781 2.0265655645340233 3.025460045745344
1802 0.30255944237797855 -1.1026760469608048 1.616460556234979
1786 -4.603372927346212 -3.0784382625016424 9.141870247088404
1057 5.367457669019941 0.5016351658331317 -2.7168741663224
1670 -1.2573523056842315 0.7800446654722051 -1.9052137242205152
235 -7.733581006043141 4.9177722805830095 -7.000988576809637
899 -3.2390694385036185 5.9678490865994736 -2.8140373570345325
2097 0.5655936795879721 6.094039252030544 -3.703464812910019
494 3.025042285347711 1.3704049173316677 -2.2855388698874917
1641 -4.49068498506324 -1.767233827044035 6.376458328706249
1285 -0.4255048617778835 2.8578208958870976 -4.571835989563286
382 -0.42244299361305987 -0.17297640438169679 8.140515801421065
1353 3.953311875902042 -1.4615045634337969 -3.2592904834663425
342 -1.4251795433166585 0.7461423251930244 -1.6172974674590435
1120 1.535814832483144 -0.21688346697500838 -4.178326106633209
802 -4.726237688895343 5.297701392500942 -0.8409564387542008
394 0.5957372140139623 -6.409229920327391 10.305866116870467
2092 2.9705021270822565 2.4677884331127355 -4.858539937454453
126 3.481529891593446 8.733498885726906 -0.8069113487942717
1349 -2.566079232486754 2.611928068046628 3.344911696953204
1499 -0.672276681706811 5.6907525587122505 -5.379501647463848
1041 0.2684547772907916 -2.3961643682352474 -2.7469410767456033
1682 3.1870172945470525 -1.966599209706599 -0.788573647239882
1199 -0.5868264378267577 -1.0201915035172593 1.369219201286855
761 -1.6304689877400251 4.084912252715995 5.629285755321824
581 -1.030040165058587 -0.7354399760498314 -1.7095493318860642
1119 -4.528103726651091 -1.7297964305766305 -7.094877787456007
1893 -6.565794360082697 2.227647339698197 -0.46349325422519355
1239 2.9480512902544063 1.034880369375953 3.398112310561652
988 3.952696203979895 -3.9328582876137834 1.1872455659135384
1616 1.3904236757207775 0.9913387895456814 3.027909992260286
846 -11.098658164685204 2.5291513368059113 -3.11039092853631
113 -4.466043381825996 0.07044230426575354 -6.739965709019901
835 5.221617419565617 -1.55335461358028 -0.5812124970030719
1108 1.7085842709538563 -1.8132472755373141 6.929909058428918
698 -6.012471483908663 -0.44097289072173823 -3.607961232137463
682 -0.30579902771980033 11.903991608865711 1.0182077765301754
1178 2.513460369492286 2.9112458257288165 1.7784931905561914
679 -4.791540738813653 4.456720986987533 3.02906949434466
1835 1.9928550544493808 -3.5410132467116293 -2.511145024982255
227 6.444561990675531 -2.1914620723578855 2.937513644306969
1049 0.9906763497890693 -0.23104792172050065 -4.415591870526171
1343 -3.7165067451859826 -2.4768433740043307 1.3745760117703096
330 3.4188164774335754 -3.6074382937910823 -1.417935552739093
884 -3.22718161331659 6.874000437489295 2.196158243018565
1132 0.3603882338908132 -3.3458238301623555 2.463446810533016
1518 -7.339818788154186 -8.02936674525735 1.1764519788959855
640 1.193621705194378 3.8108690714563673 1.1905703966762577
2001 -1.258911093454811 -0.02899445774701725 -4.2462627354276785
162 -1.459136586875747 0.1862018934866768 -0.5355385691163645
102 2.29938798144078 -3.552554834611417 -1.5682243343578295
1023 0.10269117160270429 -0.33031255912357516 -5.53778592091596
1141 4.233926463994908 -2.9475887893262396 -4.023937920636597
1548 3.2960774839515308 -4.479842823167462 6.935104423221234
389 -1.714198125426657 -0.5626107531218159 -3.9512380932393425
273 -1.3492531343758338 -3.404690547089093 3.988818718480939
694 -1.3884353556621742 -0.5788276198819025 0.031557026421422614
591 3.494576679826918 -2.737355234720127 -0.6697620696817578
1320 0.9924171495627951 5.163454794747408 -2.6657824101744385
1439 11.09711714858806 -0.9945809685924777 -6.858203413296934
960 -9.266573267168297 8.632039487702222 -5.6178721708947705
1737 1.0772489778725225 -2.498546695953882 1.3347235928780168
337 -0.8036232415426242 1.213665129776876 0.7232620796585809
2114 0.4549786940945825 9.421617269007378 -3.1301212278009367
2128 -2.1054761817135335 -1.4510447064172887 2.788479346544731
1582 8.564168473151245 -6.549421507301152 7.666406142817542
832 1.5166611450643697 3.1028730327733487 3.2892038606963925
1152 -2.235635971125717 -2.0208222584067514 3.8082989134686387
406 -6.401201109382022 3.113098581977526 -6.343342948871742
257 -0.5140130830829331 -3.9557998597131765 -1.1140886313832488
855 -4.277468240233562 1.690280880685319 6.334085191294862
2098 -5.204638919685178 1.3490754839942132 0.4293459936938749
688 10.667146092351004 2.9347730877943845 -2.1344116818335834
558 -0.2352696216422342 2.884640925249166 -2.8784987437595717
2095 -6.338253124606318 -3.7657018299944838 2.68040489020538
1579 2.9893834639496704 4.824604908710342 0.4324362910594842
575 0.027431783028729857 -1.9108186139674297 4.140306803326904
628 -2.4176426938874953 4.334276059675477 -0.6666388007681482
1217 5.0969950559929105 -4.346376155748943 -4.3933224210153226
2086 -0.6127785488663651 -3.825685404601894 -1.0389070362951291
648 -4.410078931456137 3.1096388352680924 -1.1058261299514645
1243 -3.3659039296915765 -1.2284790372721985 -2.5933877814780018
1718 -0.585009184048479 -1.3487661161083193 -1.3397563992006911
1317 5.008350664846492 -1.76428260736641 -3.1338690205690334
687 -0.8336819904174537 1.387377356419183 -0.1350233996874268
210 -3.6108155500922128 1.365165574243155 6.176719953440836
2152 3.1981322740500797 -1.2922344691372114 -3.5827790925350844
1223 -0.870152891189957 -3.8527253396204153 -4.312727406272939
1942 -5.542690552197204 4.761586560597419 -3.3243966834880516
214 4.308768363878565 3.573949029094595 6.53355611323395
521 4.433202075144406 0.40266782485694463 0.5515859033478231
723 0.9978295560146075 2.496078943893227 -1.801634662549833
205 -2.653892140690483 0.6695583096415874 2.214036283970041
1112 9.781467650327677 3.036719484231684 -6.405554667550829
788 -0.8176170324990975 -8.61583118046746 -3.8595161720708084
1846 -4.549793546745509 1.884941310243133 0.06175999418532165
1989 2.994589206907323 6.011137034396594 -0.5227696919525823
1542 3.2737393764081335 0.567806347946914 -4.339986909663278
606 6.02631526920743 7.707231607868471 1.2281664284202505
2129 -0.8837424086410047 11.013939340857513 -3.7145361278636058
1316 -4.543757700690848 1.795354086153783 -4.656562584479196
1884 -3.5004653241279144 9.906133014094163 1.864971718555656
1396 1.395282243293636 -0.20904939546777102 2.3561956579854817
92 -6.355309708300382 3.0755618388929644 3.052445433230125
1657 2.7541732268716617 1.8507408650315604 -3.416636385284047
1140 1.3178590462246167 1.7800142367004133 3.32127185035943
1062 -1.0069826460689295 -0.9845887916443934 -5.399125279187376
1405 6.061829738455293 -2.158437726387779 -2.664677594529055
762 -6.415478918917652 -11.176419890093241 -4.685701843481084
154 -0.4081973505016099 -3.0618130294042953 2.2053469674499713
1088 3.757961233118424 -4.948688490581017 -1.508533337320078
2017 0.7703152132480648 -3.779651663945158 3.6942596660258338
1693 -1.9532548121773452 5.517292559579145 1.1804655619321427
2141 -1.7694780352057606 1.7009378989985566 -1.5646128249650118
1740 1.015544731107062 -1.3816325882169207 2.8562528592822716
1811 0.8324992463159075 -6.561031307126534 5.684165441059036
1934 1.3372203863173986 -4.640312819158902 1.322672185789671
636 -1.4464106690002894 -3.802446366951848 -4.702162167588034
1722 -3.9662164449350388 -5.401111589756488 -0.8978309370764226
1757 -6.577716962058831 0.6182673452048361 -1.962158215587494
371 -4.084741706703541 1.9457960653559598 -1.9980102237470692
1875 0.21645846079328457 0.6723842224404875 -0.7840219171827553
1390 -5.703621158511602 0.26765565464370905 -4.7047012629457114
1977 -3.130093335139944 -0.8640674174084428 7.3549771553366465
1621 -2.3006218548324697 -2.635195347805574 -1.161882444569871
380 -0.5016170955933947 -5.726816943987528 1.3297022557740932
618 -3.5165773580171082 -3.8492273285256973 8.82930840732912
873 3.4570669057882566 4.332774273308002 -4.231687190022748
1772 -2.690237741180767 -3.2584902614442552 -4.208559540852726
901 -1.2679413756387092 -1.868190655952426 -2.8153243002150368
1117 -4.506915621741051 -0.14524638456785133 -0.8107822742837714
786 -2.0206912448732126 1.1877620939093452 -3.3067417471682226
1441 -0.480033547125241 0.5708502244186971 1.75469187765526
1136 -0.867516185024803 7.440126388766378 -8.89373035485351
2057 -1.1401318087872 -3.228749097044504 -0.5769457010927566
597 -10.913105456888513 -4.612070668834115 -6.616882312563511
1479 -0.48392484962483284 -5.309518279977424 -1.3555605968140039
1440 3.080488529541226 5.476808723161312 -6.492999985369046
515 2.964813244329475 -5.386542751896085 -2.7253279816620952
14 -2.603938441631336 5.9732837843497775 2.8088733302632845
1410 5.446108589496518 2.1046848367955007 -0.28854500310045245
1464 3.547586549938001 4.218710317894488 5.281599423172644
1535 -6.460777296768568 1.728041311025643 -3.6135805496222613
1208 -1.8401069728139101 -2.8100685143042488 -1.986004598524459
2018 -2.5182871900445325 -0.8186570304696482 -5.32492054341222
251 2.6813073028269483 -1.8496351464895984 -2.966223913074116
686 -0.1155113853064614 -2.4224534471673405 -1.136905670534921
1311 -0.07711506424716819 -0.7945633029721431 -1.7339710845672134
18 2.0720395988816755 -2.234686237062818 -1.8850080769762154
1017 3.287737658069809 1.6288960116395301 2.3200361195613435
1005 0.8975682314362724 -3.2163779777057457 -8.359693692322342
980 -1.7854946323638892 -1.4875310106492952 -0.6474668563096745
923 2.6896537775823375 3.0042035485716836 3.385495695890337
1866 0.4122880075395427 -2.0931574208290886 5.268637492598247
1965 -6.700739948981584 0.13965613966202234 -7.165400102628117
1019 3.6550910878262552 -0.6818063896292231 1.0531897979860716
975 -4.3568653556338015 -1.0538646641011573 3.1785721189337637
1395 -4.53405268324238 1.9264507476285537 0.6910587239913341
1924 -2.0319567460097208 -0.3635988432464393 -1.4240977571861695
620 -4.6158926299977825 2.107626680918909 4.058768474024732
478 -6.69100259006919 -0.4579567383006431 6.271527006368764
554 -2.1566526723215755 3.0396815491673004 2.181838787019302
1843 2.0095239061014167 -2.3834175872318486 -4.145746422535263
217 -0.399018793292682 3.2314610903184917 1.2438507046349656
1832 0.31346297149423524 4.14366062499309 4.451244953245533
789 0.8776082029153353 2.288783037239033 3.682166487879932
1880 2.7093041116426644 -0.4093074622011269 -0.15306604890570866
256 1.1730186458519423 -0.6027101871646552 -4.871693407127758
2105 -1.4097069465972987 -0.4410993386461608 -2.02489468446408
364 2.8992520973530094 1.7465618488252328 -2.1824807049280897
2127 0.05685689166661841 -2.1688396628570565 -2.8745340713767886
1628 6.3035590778397905 -5.101702339839334 5.567795747497947
2117 -4.213173603183023 0.9930757002791053 -5.9005076257405005
1338 -3.2159265488255855 -0.8710277264390403 -0.465334647036807
2002 1.7893458827446986 5.836070771006148 -1.3449091814712175
103 4.497006477094953 2.7160149080839124 4.713812788718078
1496 0.8816912756673541 9.680905425739047 -4.580959546042263
671 -1.6930434566473889 1.4664912893333546 4.154589445522089
1001 3.6030530874013595 -4.406233989209888 0.08620064496762088
1841 -2.0683788369425176 1.136290273411764 4.421140809202298
1447 2.953892829566369 -5.233218213672773 -4.55175256790467
1732 2.3861518229836074 -6.4108878014060835 -3.015595172519714
2049 2.568077838254485 -3.8212415245861506 -2.099068443541147
2154 5.765383182538086 2.540754905780918 0.16288294088422825
120 -2.1415543987765124 -11.602398615448013 -5.078273026230688
1392 -3.405214099013559 -3.3890382002759676 4.017051250173135
2137 -3.7304658971908653 0.06956903289583263 -0.24560322040837956
870 10.86588576733787 1.1526655662294372 -1.8430861724933507
1719 0.48316949681822546 -5.430865251843718 -2.000967201942685
1840 2.149102324055366 0.8608347598748352 5.800620550695728
1686 -0.18356101308846934 1.253397368677728 -7.52203665030264
885 2.9224632130899413 -1.8178097079619477 5.197900790379319
1733 1.5520273658398394 -8.664458764567142 -1.2717197672997758
1767 1.8811491897313706 3.5626101183550603 5.292601762418939
2099 -4.43105930263713 -1.4937245721950059 1.8250514236876647
1768 -0.1260310052706461 0.08674036428446612 -2.5183279158239396
1106 -3.5019192321404655 3.733653428475058 -2.2158329433737096
1972 1.7110260354714306 -1.116444385519812 -1.8722571157160175
1650 2.4105108150621897 7.432424297643092 -1.971685431314677
464 3.5038480884172136 -5.121703022770684 3.0810049760075553
798 6.538353484103299 3.7540784686774624 4.807632184759243
249 2.1588816409204092 1.2417751775078503 4.574559870355775
1376 5.7104917657916685 0.5915530492573178 0.775766144396151
838 -0.21193125775640773 -4.054402523225594 -1.8016558249910182
76 0.1556274886024826 1.4031577513127862 1.7923788423906186
681 0.04898789796007617 -0.5283229540613864 1.3232459438253217
1729 1.857090484988641 -0.09311652808129248 0.19290358148576262
1785 -3.62063455734673 -1.868813087670763 3.05222267326693
1413 -7.261199188476529 -2.0270056410180186 6.193280413274485
1838 0.31634967547249115 -6.9052732424592085 -1.6746233410259752
1144 -1.7601486302556417 -3.358442336177169 1.4364521472732648
1271 -2.1729488259855936 0.9303546893302587 -2.088908987610615
1819 -1.7927173807203858 0.7425958912349677 6.726073156690758
1290 3.071089923067801 5.864624051573597 0.6493304118810427
1293 0.057558407188171075 0.41104023160652636 1.5689610266808145
1038 -3.0114898205548024 1.84351211159024 0.6432974396320947
2026 -2.7260627337652035 -4.669892267885633 -2.247071667865666
1609 2.0894289741617653 3.3522174903117223 -1.3946241370091441
710 4.918221761641675 -4.826336774121803 -4.449655188824524
6 1.8652145682697174 2.833846985348903 4.499035385551324
347 -1.0175777336818008 -2.2618009541563806 -4.6051081247060175
1174 -1.3750182713124055 -3.8824252166175897 -3.8945377159259906
2025 -1.8535656800527425 -1.3735675541417127 -2.2149406148957937
1442 2.28953805225356 2.5852508349531647 -2.1372793267010124
1367 -1.733866181215243 -2.7109022473273394 -1.423177833395538
124 4.682580794136268 2.6558949499812603 3.7209633997059326
571 -1.4940581758493945 2.5064880506626546 2.9241903038480612
488 -0.5741734131121248 1.9919995456379793 5.830237598102662
1371 2.6027242930857613 1.120325767550363 -0.9751744069966729
1059 0.9554761725353511 -1.6556315684403462 -8.692931459187768
2103 -3.857402161781421 2.431735910559514 0.5121881885676826
1990 9.612387632941727 -0.1065558487340785 7.51293795973807
1450 3.579424176654001 3.0860394156719426 1.504726755992693
1706 -5.918207353683184 -1.4357140010419684 -0.18092602476279002
1809 2.859246198865505 -2.186787961972401 -1.9051152943674734
2136 1.791920906571202 6.352930297360841 -0.19013181992420716
973 4.714609582026716 0.69673011550277 3.5280928466691526
1497 -6.313666161728683 1.929717721235367 -0.6504186955175718
1110 -1.4407867737845526 -0.08885609370835734 -4.263469589394873
963 1.9937780832160188 2.3472402022594916 1.379574265129825
430 -5.506036678980598 2.4971390545812673 -4.089279903090122
1103 0.8988984594528526 1.180739886028441 -1.1200903599024639
598 -0.5476681904580712 1.5068389207422284 4.943009379504902
1294 1.3275318463355774 2.9265040985406263 -5.597201793363864
470 5.778434945119811 0.5840755091222726 -0.6263484729599443
1648 -2.3778705494340175 2.4603042813030322 2.672733445077807
1523 5.129462364759899 -2.7810763714078637 -0.886923418435782
12 5.812107859542517 -0.6210188499424522 -0.42394074615142624
1769 -3.6948089896491623 -3.343708511134077 7.708835680633168
1538 -2.5905028015847598 -7.5850509589603075 -2.9921193257516614
262 -3.9086522224758733 3.0976167172491618 -1.7125421500222615
1672 3.1954501189196503 -2.8711569783942728 -0.18152501381773875
11 -8.402908494099737 0.7119588005839229 -0.11523228091705803
306 2.3885221528385503 2.988715698462865 0.5520755397865541
827 -2.2422386581247413 -1.593115273210304 1.047219990311168
181 7.19444244646314 0.5538865914862804 -8.844705278990201
107 -0.7571858254081303 -0.4330366291652034 3.773763967351213
1379 2.494540175274346 2.6346697945201067 11.589927619367563
1122 5.186692390681014 -0.38740399716867874 9.12534134156813
692 4.266021252191199 3.2046377669184087 -4.355928077916915
976 -2.886919932701735 -3.4396698522839424 -3.098485614646743
1068 0.079223370697278 -1.3832875581712136 1.3863047698913868
1549 -3.651303095826733 -0.7667094740362488 0.2969849150478223
431 -7.631821659337063 -3.305672015549286 0.6529694224825573
362 1.3561985875014753 0.5807024667522742 -0.5616421240683709
953 -0.9709771200262777 3.9543093176867012 -7.035857864892134
550 -0.9743727636666545 1.3718502768600356 2.7450801884327367
1416 -0.6687452454591197 7.849679972862166 2.87640611126684
1436 4.446815573426465 -7.304220087317942 -1.9314503978410782
1378 -1.8957025656438506 2.006379312785025 4.879101217269901
1216 -2.113063925392298 2.3776922204011903 0.9653581025598904
175 -0.6911572221422433 3.2672260769305113 -0.7558624084995853
67 -5.058315049644782 -1.2119321643889571 1.7745234787177464
1861 -0.2300581487197842 0.716924539207796 -2.6543596340941638
860 4.047628230551474 2.3651842459343664 -1.7144206564049962
1673 0.5580728519596135 -0.25013114831807154 -3.2951308578378975
1816 1.2621773726880767 -0.8394899743213028 -3.2085730384060875
641 2.8172510082124385 0.061518761385604345 0.8230967508074527
1886 -5.45587416908337 3.8827108358273676 2.818815886753572
971 -1.201587297806443 -2.2682302803864505 0.5165823323640606
177 6.80244730195533 -8.33046772754402 3.281707231967749
1696 -4.498037588212358 -2.9188958560080454 3.8236583866287894
1568 1.619737815300984 -7.6831534665766155 0.903426584780854
1709 -9.179970056932465 -2.0965277701760052 5.510406398776855
1701 -0.22952488338454424 1.3270245758043335 0.026582932995946967
1679 -0.6403091420482748 -1.3373861498212756 0.07798875727718531
1728 -3.4989093536761238 -5.420166463081428 -7.982554073487153
2051 2.134256364897243 -2.4806822414457206 -1.0224791862940137
1720 -4.4010542285349175 -0.4493103228889901 0.7083676733004424
1868 4.666791520821315 4.283112405492567 1.4977371464262372
2124 2.2461931215551005 -4.1823106528782255 -3.435800158428773
1799 3.305291963267154 -5.470123506218775 0.39667893342310095
2101 4.387601252007323 -3.6661157954626264 -0.3639080056647395
1063 -7.98832846490331 3.4846178729874153 1.8442508033554845
1346 0.7814046808460238 -3.285164050411612 -1.4898131797219447
1852 -3.5434634081262804 0.4289509825724405 -4.871983235785437
1373 -5.158158439032065 -2.120947122253545 0.6007238624857557
1004 -4.108549663965869 3.1780786624667217 4.551108415664033
1829 -1.8395904048629184 4.893916839177388 3.591148204215001
1060 2.496055118523145 2.8066632296400895 -0.9132591278319498
1556 -1.980299364759991 -6.2266534709899535 -1.7956154611350248
574 -4.555036659253563 1.7857274894033675 -0.4569622309470252
1739 6.543162527598601 -1.3067833482477833 6.188837169639903
964 4.199780530309078 1.6589489129163966 4.812538644282192
1534 -0.6147356561238599 -3.80821391982611 -7.466280151476592
1554 5.502336287040445 -4.007881683204939 0.08093143917998405
1399 1.512952328498334 -3.007188870542616 -2.9692230449975914
2151 1.3403223295096334 -2.2200185257128204 1.8082787264790303
1058 -7.494357907557585 2.459093324862911 -0.11154541792908784
202 -5.217136334049784 -1.938483359092597 1.3434103056780158
1498 0.9804721600411027 4.815483756495366 3.228850634400429
1622 -0.47251396185719907 2.870731314784626 1.5554296381254686
1931 -2.8724672710698593 -0.07569956706049363 6.39303839193428
774 -3.6776594381228422 7.939095524613412 3.2210771679108334
839 -0.9422413996867629 0.586264014430752 -4.49045027370475
1662 -0.5512124569239678 -5.875482125250187 -1.4412339645348744
75 -0.10719865101489594 2.9159266292119552 -4.455217847482841
2082 0.11331554604885821 5.081690483594364 2.9820251420629824
707 -6.370329815385236 -4.36522024650433 -0.3484204508851927
758 5.908344017653809 3.6579592961436287 3.5300507691450886
1595 -4.204580684334874 -3.9364189771618667 -4.247918963488944
2068 4.213567328712054 -0.9226189253553184 4.046686101418775
356 -3.2784399522276773 2.940635384393531 1.4451247329892811
207 -2.521893338119827 0.3375083899536926 2.415873853491199
1830 6.271437842400954 -6.476314247183223 3.8829165349051578
1116 2.4828477225336676 -0.9576707723004052 4.609563272045722
1576 -0.6436153005853296 -4.553916043666172 1.6789032832285438
452 -0.2047487405145966 -3.9051529050550657 1.9270022618632927
2052 0.5289990284007534 -1.820464008127854 -1.5696037877142006
1590 -5.857016212915396 -3.4561608406373834 -1.1867673648483366
1601 1.7899684200386898 -3.8633751043225675 -2.8601963964970207
42 -4.218595949816919 4.766502061069256 3.2622311327960154
460 -0.10539615964643186 2.201656565016781 1.2301781433343186
1708 -4.556682609432818 5.812663927256464 -1.51002801637573
1949 -0.7456595772760883 -4.266210547984037 -0.7486521607427947
1275 1.07906903512223 2.2023484971348437 3.7797834582894323
2039 -0.5539476156934892 1.108046222426581 -0.3037149382689182
982 10.387126712392082 2.598412593281817 0.13584994493699334
1153 -3.3361871380374786 -0.9438557910948128 -4.342998802913169
453 6.126086653562674 -6.480449471614356 1.2197055661229026
1164 0.5021414985572666 0.7184799945512421 5.243132728581516
1979 -2.993718320512919 9.500013198602247 -1.0665902598172412
1350 -5.688946324525973 2.2003913237442023 -3.920794856056258
1025 6.80041600268098 5.207443015409155 7.4027931849053745
664 -1.0261592732345273 -1.9036939227930136 -4.86817429089385
573 -1.275785977572402 -5.386475398000025 -9.460691956145324
1525 0.804825330101277 2.835654220605684 -10.278688190633758
307 5.694871251272482 3.945673171183396 6.1634918204777405
1759 4.047865820213839 -2.6427357871904773 -0.9345090181336142
1736 0.4459718574896863 -3.1923505164090495 2.6545105384691894
1623 0.46693982135246853 -1.1598092027012095 -0.7382147756186028
646 5.428286326311801 -7.0002425675133235 -2.0744701733037987
1827 2.7916020581850947 1.5950782578595457 -3.2748534246147325
920 3.48353438965111 -0.02840143602346692 -3.8266019572893706
1180 -3.460108541995507 -2.9127527071317134 -0.47106407312026843
1299 5.465334786159388 -0.9683548701775032 2.0840511149037884
215 -0.2069140084146475 -6.506647373543285 4.785250659847298
853 -5.300848921407157 -1.9082208803575926 -0.3322753918750029
1319 3.5854361984391603 3.1554986399176843 -5.698272974562294
471 -4.245481524252853 -1.3097618896733347 0.7655671492135696
2096 0.9968824861959642 8.357880699174558 -7.188924425708126
2010 -0.6559273029241336 -2.644887392376165 -2.4856887783598314
1551 -1.576260103739703 0.8410543383827843 -4.568808477547272
2058 1.3727531895513851 -3.6085801193758225 -4.2031310432734035
634 -1.6783876525047228 -7.008048668837708 0.4686594721680922
1793 -2.7081492272553294 -8.20941450538793 5.490259581817565
1907 -7.395363532184528 -6.224331386991035 3.1625764551198134
1099 -2.525941839610806 -0.5839655970665291 1.2341349956067584
987 4.633470557867 3.3410242420432787 1.31092984920418
1510 4.6589304762635475 6.498443616261956 -6.301390292686172
1053 4.292693658559064 -0.505963899144569 4.930376397820685
617 0.3132137724037115 -0.46523307830408345 0.7952283964581087
1137 -9.988098762166711 -10.51499070699611 -4.023229602538091
1215 -2.5638566719571645 -1.5399398840906529 -0.3947065545369954
1888 0.6128913564896179 -4.534478533196583 6.451555950645848
1046 3.4779897420227863 1.8935661752808912 -1.7219827481495544
2067 0.34888041053534047 1.0846991145185776 0.45252318631844135
562 1.8607101640890613 8.864472755617573 3.1346918293715786
1562 2.579928106810238 -0.5545399112865053 3.3759349163354138
1415 -2.9264895579561987 -3.2774063757198952 3.0041209785735417
272 -1.9047655310523373 4.474775733106994 3.612791598655859
1238 1.937991297152447 4.4642275154808075 2.8651067830855608
718 1.1492506919799663 5.188339513487386 -0.7489755997752134
1082 -2.8844614586133392 1.2665151547663687 1.0134250975755583
1474 -7.215600894765768 6.332471612375341 -3.8740168463968288
1922 -2.5161538629691114 -4.075706412866286 -4.484440076579322
1380 -3.866146904128855 1.310332728693124 -1.4749572577612469
1476 -1.5347555284486383 -2.8005116004838615 4.809901009659275
1080 4.459115797224331 -6.413386324655979 0.5515332271541623
538 -2.250541950817961 6.493814087169581 -1.958585132928905
990 -5.3340889734966845 5.451534387988053 -4.150822444725577
1300 0.05175912785442993 -2.2961322659305914 -4.62105679142646
369 4.08849444924108 1.686035789157586 5.352802511196748
1091 -4.187487483621306 1.3735550601440478 2.847737814720567
1791 2.2250075568457133 1.4260213749647614 -3.2837996012120167
1642 -4.174135299389558 -3.9512071570140157 -5.214738263277493
1877 -1.0240251864535441 -4.137202190500481 1.8647606502803729
367 -8.337159137817912 3.3734957976783444 4.471389132223354
1833 -6.373407761214477 -1.7094044535405761 6.702475507326213
2011 1.2514851470968713 1.6514083734776899 -3.912483892122653
1580 3.4551221772232603 3.182616868227683 5.233289304136939
1865 -0.6460666369590796 0.051215498964268434 5.320418595350988
1454 -2.542150214827692 2.5171621626714704 3.4810300480055996
1689 5.130898433017737 4.32155089887288 10.666906428501173
74 -6.633053462916973 -1.647742176482688 -1.7469533438398053
1375 7.204961274567204 4.5764005862223724 3.7109537211821255
1635 -1.9524030210929482 2.4356312209266497 1.1247610473364433
1663 1.8926233558677603 6.28249969259196 -4.119266041628443
656 -4.118753745918473 1.3984992994901362 -0.6135301759335833
142 6.736191607406436 -2.3475181904134637 1.9229684800926097
1431 -1.21809752972675 3.675735072232282 -1.437067374343139
1789 3.9487434053983708 -0.3982425580271781 2.307213651821909
1073 -7.937983717964368 4.626874581358246 -0.6841452128196147
1933 0.8466585678880966 -1.4746357355540614 -2.274276843037329
1270 -1.281173939480353 -0.8462778658249135 -3.484107373090094
616 0.9797139912953013 0.8921284810763537 -1.4115765594783998
932 5.218330545896665 -5.606397412367276 2.947850543239538
1591 -2.748736603880588 -6.2230219282570705 11.8548893084283
1585 2.3329118155633117 0.26392751543625903 -0.8861686578566003
1263 1.0714602692382922 1.1322437738537336 6.482075449246096
1710 0.42565082007163335 -5.49869462079654 3.5583525666625118
1817 -4.965127092554846 -1.2350030855499647 -4.433919985010764
250 2.4656616217961007 4.875200179831896 -1.2596765662833722
712 -0.9919015960163682 0.9187045773273733 2.237066755962216
1943 -1.0987108924533049 4.513641260410401 6.58367316555357
1064 3.0458081884840116 -4.8205593857834055 -1.3220452355418397
1845 -5.552260569581111 0.06291755709207697 2.914123946153509
1938 -0.7550717014746275 2.703914252426561 -3.1442660952563997
715 2.2198878953250945 -3.481453711893671 0.5396650091521694
1048 0.6781195086901475 -2.9560290710388757 1.3437772880844723
625 -0.5058002202095463 -1.918720824884583 4.572047003039374
1547 -2.466958102619589 -3.566275214189721 5.034419458111053
1763 -2.502986291538549 4.73094525999144 0.8030489234711147
266 -2.415622426484323 -3.6832642369029336 -4.002909672406825
1608 0.24668150164239183 7.850057389685492 -7.442844275261045
1406 4.266584353766664 5.989008235054473 -1.27590239023167
1149 0.5354532167036286 5.643527477449662 -0.8897598973763161
1123 -1.6518938574445372 4.465058667712285 1.7088848146241704
1460 3.573837227241147 -5.616809233021187 2.7400299091256843
36 2.336005224945938 4.961360643612373 -0.26205351577068986
1612 5.691280995469373 0.43780677151575964 0.2551938702990875
438 -6.11182334415681 -0.8279495345899024 -3.5057816773607122
2006 3.4851225712205056 4.213191952027935 -0.9052150194626705
1553 -0.060785240276328714 1.1798346620905762 -3.408274122090946
1228 2.782750179452772 -3.4044914832799704 -2.026651339599174
2024 1.9525187391867875 2.005086804330219 1.9803413005005392
62 1.9045835631881232 0.7364158206032487 -4.387988464407233
523 -5.3555497607089375 0.7135064388951886 -2.935641532903946
928 1.086030026355075 2.2344338057799575 2.267230625428978
391 -4.154200448979975 4.95550682515334 -0.4418873407881441
2093 -1.5114266949364208 -1.8068296498777725 0.23160164496441055
276 -1.6814464036753785 0.11780537122583006 -5.258347979041085
1090 0.27814592405205874 -3.6368771856298596 -2.1838657947484057
1477 0.4004678022718466 1.6936497168511284 -5.084477746756108
2044 8.713680297635621 0.7240549437072548 0.29625569983438277
1305 -8.994540245866705 4.341339920959586 -1.9748023069819645
1486 1.025220181392438 1.6503125525904523 1.5348229020913287
809 -7.12049629123666 3.7131455358828314 1.7002952472297148
893 -5.217253795040446 -0.21928091456254953 4.557780628287254
1788 -1.8226802659864385 2.502109322552969 1.9659651915179055
931 -4.293559713575603 5.8724379804842295 -1.9631209264744196
1963 -7.453962983623934 4.698890585743111 2.297611071601896
1022 2.910911814836626 -1.4120063889561687 -0.947329704592892
1264 -0.7107844426284871 0.4752441981731305 -3.092695587833552
941 -1.5801772378186532 0.8486874176966839 -2.734639523313399
191 -1.2895250323685126 2.3442731587297434 -5.9953472913376435
1177 -0.03136099126905514 2.8637260489244443 0.2461000316761627
1859 -1.5295044837080802 -11.617966210067294 2.1725509061042048
1356 0.5830127760413469 4.119274740057579 4.284860157111883
400 -1.9576474194794709 0.8521943663984806 -0.8168521909221078
1383 0.9587585764558265 -1.1504158032206317 -0.49179062912625493
2023 -4.342340237703707 4.026445525078253 1.6301647125860579
1800 0.5013916653217059 4.870844071913824 -4.995575137054344
1461 5.668357080223873 0.5255267115092982 -2.7560122815592085
1411 3.0193755562705418 4.978986951525853 1.4615057677023247
2054 -0.25304963280455584 0.29326150085865854 -1.6067658073385087
1273 0.11144488540877152 4.331031298024948 -2.3907350906839655
2139 1.6193025853891934 -5.422905067709404 2.2966393302716472
2122 -1.615932274573141 1.0303474847355123 2.506288978625438
1246 -4.295352406830195 -1.727486301227157 1.3052011254090472
2003 4.805113248547393 -4.312220419894725 -0.006627182538810064
2043 2.3356933459475013 3.783504804586616 4.603131437367604
730 -0.2694903833956672 -0.7157724078077803 0.20146647145847957
462 -1.983798117751584 0.005753574154017562 0.7822551459985674
830 -1.0440481038505791 1.9014898789607009 1.8285414928409127
446 0.3738909566935218 -2.5338946150108144 -4.675912092236099
1212 -3.243886279476438 0.3268779582810165 -10.30915506240405
1031 2.2336187005654 3.0574924045988388 1.4908356344400122
781 -1.1985039441316359 -0.36402393787483583 -1.6005109843109135
1505 1.0844976562414763 1.4933471804488538 -5.257949975700346
1484 0.7155799162635935 -7.386045693030333 -3.331104786617471
1764 1.6221239714919955 -1.6534850079735635 4.895558671885164
612 -3.5445609962956364 0.9660073308270015 6.401103592325553
559 -5.727660187958747 -0.8194929780280804 -3.056705672562787
1552 -1.3854162214187058 -1.1501579644703683 4.598200945567562
1974 4.391748925363834 -4.896661510673154 2.0419521100446163
1394 0.49068302650320367 1.6533916824871306 2.2439632064550783
1020 4.853353300168962 3.6147456047241366 2.097199813267667
1973 -0.09533396669925383 -3.8357049659924596 -0.23056406964254203
60 1.7282749898675693 1.7256705488826192 -1.3166803852300022
844 -1.2255821792665151 -3.3354845484048754 -1.446330283500414
1694 1.839802072180942 -3.9573120238284325 -3.246667960161506
1267 -1.9813114210229075 -4.530041010920714 2.952190603506077
77 -0.6331514756585288 1.2634178226287684 -0.052560909213730606
131 3.805355819591778 -0.8390824068773381 0.7421765102888015
344 3.063498013066406 0.8699851364311667 0.513135936101862
419 -5.494197637093297 -5.682819375258193 5.789013023695523
339 0.2262988347076813 -6.499817769224505 -2.6383048651202587
657 -3.143018495335294 -3.0796338101581795 -1.032951885141918
1296 -1.1609659155445455 0.002526688857379468 1.9009552465166564
792 -9.165487717166886 2.154090202336833 -5.769494172613896
1778 -5.336775810636417 0.8124248951571676 1.6797921809365437
1795 2.75127382721128 -2.0709218280668633 1.5678875414580618
274 1.3478343638192636 4.4200626168612915 -0.3147367425801482
1913 5.010255210579439 -0.5537737479534697 -5.974050495461145
1571 0.562677365550024 -6.873781893049595 2.2105039817676997
541 -0.4439877611681075 3.1757129417372156 2.4112966419711364
1619 -1.0541037309882053 -2.722260632658541 2.1810111139269304
493 1.964156914918587 -5.589545394217855 0.5168636935406995
1278 -5.022057709955191 1.1741204650073362 -5.861854547632725
64 -0.7983230700747727 -3.027860047995011 0.1479018705078613
97 -1.5624196077774677 -0.1169472999796409 -5.145497697703602
296 -0.36541859202232574 4.255881230689912 0.9816016097811305
1258 4.048640714324649 -2.3992347408117767 -5.641977128710838
925 3.9038568979364543 2.1519233339585475 4.1539524725587915
1503 2.9318600236061854 2.5308132919935438 -2.9148607490283536
1613 -1.6225885056693283 -0.1616091522712437 -6.0775787505078736
1998 4.684304886132029 2.355282601879474 1.3609611357096458
1644 -0.11009451158462583 -0.9074674554878824 3.4849832815532733
1599 -3.7773179379562336 0.9398129429116726 -5.843090067684497
392 4.594392858519178 -7.183991084407025 -3.968913183946157
496 -4.7799053136636855 4.641424065373514 2.121706982677537
847 1.6757615377992527 0.7748807320802653 8.406037323356768
1359 -1.91475131523592 0.7210931536731455 -1.9606326745195917
79 -4.949240306449207 -0.465610306925045 0.2905217434138746
1034 1.0553714335724762 -1.016771436628533 3.752499566320295
2094 0.435530696293004 -3.9625892035821404 -0.3735347666267793
2040 -1.4671794612239457 3.880202409214262 -3.799295301858674
95 4.16931783874502 -3.2874003912646312 1.2274049139855352
2159 6.740123167846755 0.5537388361374972 -1.8832096719098115
2071 -2.186698732006589 3.671987560395236 2.3590232344354463
1856 0.7608404335007558 4.696930485211395 4.593683057437049
902 1.3495685923932168 -3.4486924425300476 -2.4249897099774147
1544 2.6756472393969988 1.18851960197757 5.301914072311559
1954 -7.211850786384887 -1.4633073339276434 -3.021451317733895
1704 4.597645236871968 -2.117758274065862 -4.338675579614287
2157 -5.813723970725468 5.164729055122969 0.12455913492144285
426 2.9682596489730284 -2.4515758997617554 3.606374085036833
1021 -3.1989643999245567 3.1655896656121714 -0.22165606018289016
703 -4.113953143218422 -2.2209871794875204 -0.372996600895505
1898 3.888454525238944 1.760283631432911 0.6679379241388268
1813 -0.8637620035901185 -1.4449502484962051 -1.9386791758731547
1509 -2.4199037431721666 0.36691748096737165 5.845271607658311
1425 7.141556155195332 -1.0658790593413616 -3.2785750368100155
1762 -0.3995286020891096 -1.0513884430203155 2.623387866034178
1502 1.2352758755316777 4.48396915676697 2.8551313687129074
21 -1.2898083351709735 -0.9390689841107297 -1.9068090803887392
1500 1.7959925470279272 4.545986848405851 1.1144489220447729
1573 2.8131471019424232 -2.445346119908123 3.0490186632031255
1707 -2.6395033324026547 -1.1305725079014708 3.042485248940285
1656 -2.9220261992782035 -0.26286698403605135 -3.5023855050701163
106 -0.5721933112380156 -0.8062059693222848 -7.1870178586637
2 5.157676191585591 -1.1398852024312822 -0.3226973489418785
473 -6.585743561374992 -8.121419188861934 -1.8379413439530032
1944 -1.5182858982898033 -0.7508597340371431 0.36321779555904155
1326 1.9817234784774969 -5.698603040661052 1.8748646827873332
1914 -3.3311098101898535 3.189488318314148 4.016399018305424
1958 0.8966550478214917 4.878252752645177 1.8762272938677602
684 -3.3184017480753103 5.170439442078722 -3.9107929789769864
872 -0.5369741391446043 1.5309709958971283 -1.4615782429655855
1024 7.51341087286161 -2.4321535347458174 2.7996051384230385
921 -5.397349097323187 4.184235290288803 10.070079156477819
313 -0.33161130018998364 -0.3138467342603401 2.6900379657352733
630 -3.1861989613049957 0.3467400818135637 -0.7889631661000919
1115 2.096249978121715 1.5414928725970936 -1.6276415225703738
894 1.4563738394904773 -5.780040918365693 -7.64218875105594
1702 10.470398973339757 -3.2792160661088703 0.6747493901470691
1328 -4.312813774217024 2.9108338392643263 0.7621644037981491
520 0.6446430104181057 1.8441636877573262 -0.6075551111726458
55 -0.7861069717797501 0.15796678364142983 -1.3289254399719412
1618 -3.808539145794436 6.248117971763522 2.360763531439931
889 -2.995235669790557 1.5031332303316889 -0.9661130710706006
924 3.1906709595187435 -3.861250007530047 2.0363993708041765
147 -1.3159049865462988 -2.4312823024991204 5.20722642959459
1921 -0.1388612533086444 -1.0660478821696138 -1.380456605044868
94 1.2374778013147083 -9.736904270776698 -0.3568859232985091
46 -3.0703166562194455 1.5595973830776046 -6.24867357514153
119 -0.632912406485913 0.717069175274575 -0.7061799577097028
1365 0.509317322391361 -3.2971035726357343 1.6844988518666428
1491 -2.5675001029439013 -2.8901541356809615 5.891174130631922
1574 -1.4606240521130214 -1.6089320729461345 2.6227091195118684
1999 -1.3262629107536659 2.952116491242821 -0.7038930021336322
151 7.213041690189546 -2.5091352668150138 -2.525620631595817
1077 -4.4589321820549195 -1.6179158661351618 6.2434039289396575
1167 1.4948757371980053 -7.211439169579138 4.84356124287527
744 -2.1055957487303765 1.777987557339721 -5.039601343886254
666 -2.512889402241384 2.018019041839529 4.315933511710497
15 1.1076471318508967 0.8970072043579532 -4.49972306166831
750 3.5280105006229427 2.6090990330799113 1.649684741014746
1712 -11.917003022071386 -9.434061409099288 -0.45619983753106913
1850 -1.1092417275064477 4.097800489389837 -2.128550578528355
564 -6.571211866012855 -1.4402141174319993 -1.5322301971455483
201 3.2186576021935402 2.3264274154289613 5.841271540307776
1606 0.42986932039454334 -0.4159266787930817 -3.883678705124753
820 0.4300046362628962 -1.2532113894928887 3.540169318235149
797 0.20296023788023337 2.3946331567588133 -3.438640827246299
1797 2.1381411961324304 0.6049442213290348 -3.963775545105764
183 -0.659653682820821 -2.79028856177912 2.145227463672817
1685 0.2139675104347303 -2.524788827837862 -6.326471329578665
1982 2.943110214947126 2.1052518472339585 1.6865418398027534
826 4.112602707070921 -2.5685544129878735 1.790759087723616
783 -1.3100694200753729 -2.459068193140619 -3.0594225838968137
31 -2.060297157101639 -4.021316574335077 6.025046519664283
1600 -2.4625955188773214 -2.7504829534774635 0.8543953116534114
353 0.5274566867280928 5.297192164751715 -2.015886111113512
68 -10.514559359856332 1.3408277535793733 1.5435627602985131
672 3.8394833656817027 -0.826492197952084 -0.073643734345781
2145 -4.1274442068307975 -3.967696170772309 -1.6234679297231334
957 -1.5628910165254752 2.255113196493302 -3.926058016602102
825 -7.4518610756663985 6.419025237546382 -3.6792633831126516
1602 0.14595026325160196 -3.409879442839092 3.4173982344726532
286 1.3431774400985474 2.7184519211276617 4.225299614327518
2032 -0.5205933214784955 -0.1305485258056085 4.204223121095445
2116 -1.4720682428917315 1.3238658815910398 -2.7191496570631384
399 -3.6594900561370487 -3.1493609900266875 0.4049333481787488
101 -6.889614332709043 -2.872146567704434 3.8177445203409164
50 1.6078860729624425 0.6706363013970283 -0.772338679771502
206 1.922029620001754 -2.601849944893215 0.935987892944266
1445 1.750235602117518 -1.886689109117074 1.3499602176539955
1230 2.2066595681819257 -1.9455775659455272 8.030523805115221
1344 -10.333768443258863 -2.9618410348495976 -3.081231249595306
475 -3.6502468473163265 -5.447095322084319 -0.7431919164469506
831 -1.1379332169904846 -3.8610439258116105 -3.099994995258631
1981 -1.1908937287005708 -2.746515509647466 2.5471197766662996
906 -9.896481866630605 -0.5865920812208159 2.2710482323889822
845 -3.070239525722669 2.5082318689251357 4.08055267072632
481 -1.7004378496429098 -7.802632478989158 -0.21823902338818277
492 -2.8479894874855036 3.162852138768645 0.6876864873071499
260 0.906457378875757 -5.746299837613872 6.517610183129677
89 -1.8418553415191055 6.087090856806095 -2.3564081316982173
1815 2.4312589453425972 3.3544396297450803 -3.2079522409564465
1584 3.935737298094416 -4.909126501681405 -1.3690668271451796
427 0.08433166930421426 1.8083661158949187 0.8997596762089665
43 3.0516450559725463 -4.618062938873286 -5.30271872239435
484 2.3106846037473607 -2.048959839970042 -2.4066587789123686
305 -2.7027128825893905 3.571979303531673 0.4957416218788397
410 -5.629515606341759 2.496981680712729 -2.25123159539688
936 1.730998719959916 -1.0363087098862414 -1.9682786878314211
1446 0.7456914618447993 5.272336549447887 1.4684333946833843
1361 -5.2320326834829896 -1.6294807455078806 9.442781350040168
1348 -1.0047173174565378 3.526549274806563 -2.693699522056666
1084 0.6833114183447847 1.1271806809407419 0.23300603795858912
1487 4.076475005117665 0.7423490154565641 -7.783165278325739
1330 -1.3664952697752122 -6.1839592241073635 5.491146071785488
1448 -0.8916539748812996 3.810773405509133 5.329244452885213
1925 -3.4683153927794286 -1.5936907534636002 4.866616125093759
128 6.259344283886446 4.891434129988016 2.7449991515076495
423 2.543052570639524 -6.586331085066788 0.9804119054640231
1916 -4.251578857215398 -3.7004542761454986 2.7018565296110357
1928 4.445744879296235 -3.5860535250101653 3.312556892565746
425 0.13261960361667904 7.887349359764163 6.2095703964116815
545 0.8766410495082636 -9.59820900700519 5.833380191737356
1219 -6.083408298973566 -8.394316785187465 -2.9806416983539115
480 -7.060835788239393 3.3836892800032303 -1.32023966489009
1671 5.462562012453184 2.336145250476374 0.17466806898327328
1475 -2.4344523796877255 -4.885066788940895 -3.2267957646794674
1864 0.8527537167578855 0.23274681435388425 -0.6616926436655226
1485 -5.212590418053061 -2.970980244285688 -0.49327283820273027
1540 1.062150115756567 0.4480484465093785 -2.4248912076851474
1826 2.938182625114358 4.006815765330962 3.6672734010915313
1692 -0.6419866593290902 -1.5417867433328767 3.6471950858525948
983 3.9264871931241903 6.082003685944447 1.2001594560462048
1781 -1.9599859397350137 -7.1035242084301 -3.3855624730111216
1472 0.1966242343466112 2.1687266177166884 -8.810757314039568
1321 7.386299459080427 -1.7009172573720828 -2.26768826519669
1045 -0.2957041538884609 -4.755608454293237 -0.8236734251693301
510 2.310846066417362 2.219359515440167 -7.683067767017076
1754 -1.753397974871445 -1.0640171483185095 6.543112813570629
1184 -3.2904142564541368 -0.2655697373892192 -4.822521270227234
1634 -1.6581729613011145 2.1858438885024394 4.706683819632972
1915 0.4548105651221429 1.043299234080787 3.9862336339257958
1818 -7.820613526266019 4.6346175991407605 -6.5834370545218635
908 1.8826140075358386 3.8135418048757947 5.85876954378343
2038 1.491931168726572 0.13515299419506374 -7.2847356240302785
1878 -6.924252369228504 2.3738066901809782 -2.553956130610924
732 0.28848847075368955 -1.071001281951548 2.6187769100581164
1432 0.8856181702371532 -0.8234838644264134 -0.4231358495604103
1902 1.3116221959214176 -4.3160754544070645 -0.805988344951975
1854 5.169033136901737 -0.93642186149097 -0.08627145030703735
1681 3.790606068558523 4.281855636076823 -4.844700802764027
1079 -5.867308992209059 -1.6937558474216987 1.9862543124532723
1169 6.728903066616863 -4.23393786706853 -1.8958581196729278
1848 0.9721935718677128 -3.303364862187357 2.9305982092660323
1910 0.324222379004104 -3.8610712386915513 -1.0799137338417022
1013 3.8982634224768713 -2.833667923564276 -2.166385296191142
284 -5.92708895125852 -1.6982446703666623 -5.397551250155875
974 -0.2970672573786776 1.546654822121019 2.651015924092689
1333 -0.8132423840055574 -0.9253963319811827 0.7663461683811817
1980 -2.3863649652145504 -5.19330558738772 -0.504875767083705
1384 -4.004456573856509 1.8417072290562095 -0.898213727519172
1386 -0.11560971255059023 -0.058724189792560236 3.3527434665382136
1895 3.963259771400744 -5.314129655826715 0.15797270353237705
1006 3.5448711273922435 -0.3832584175688144 0.7270071950704048
1905 1.0616769883785886 1.499461309437369 -2.58083839578445
642 3.455825750078596 5.306894380112839 1.9789943892236361
1627 -2.671687710406593 2.814243804288542 -5.353268568611648
1015 2.2308791615879806 -7.983474732208436 1.8069223634770282
2031 5.56641489995388 1.696252451880721 -0.7361982199583247
44 -3.3201373134987433 2.023114635767337 3.0115750167734894
1988 6.725900736622151 -7.100406962493292 0.4451271634627113
1010 1.211953511405579 -0.34285713617394287 -1.12959965004154
1382 -2.2679586036560155 -2.796472241988537 -3.0885728006616273
1968 8.355162420746836 2.81080773768604 1.1833710840878462
1851 -1.0903617557743353 2.768157412968937 -7.427471334206163
1937 -1.369790000839839 -1.1079349895491313 7.700255089350327
27 -0.9883204737983214 3.9441712007343996 -1.2344920130621335
1640 -2.6022214605686607 1.2801507225441755 1.4623436920679065
377 -2.5613510760357188 -7.995192485009821 0.3796106715586146
601 0.4359378757959899 -1.1956219965285828 0.9565591737609026
1870 2.5205117314430874 -2.773016507344909 2.449287656516268
1424 -5.3757671743275575 3.128952168068643 -3.795220379816135
199 -5.850134701431464 7.0530228418060945 -2.287926889517381
1522 0.05953286816891271 -1.7343021955179458 -0.3859173178375759
333 -5.8857825014728515 -4.256942054263938 -0.5401188195497106
99 -5.427039204559535 2.5201690799995338 -4.9261693798780675
1723 -0.763545339471746 -0.9213243009351293 -0.07861615704331634
195 -2.2461564630765665 -0.4404655330516217 1.2335091688336657
1752 1.068775983008919 -4.128631295880049 -4.5380827222466795
2015 4.303252760118652 -1.822711260009354 -2.6084774135962947
721 -0.5860731672123428 -0.31230817668327554 2.112576596667869
2148 4.723568143701617 -1.6738768559537756 6.689157020535015
1044 -1.3932079346037212 2.078553039205002 0.6157236041860551
361 6.945638494282044 -2.4876995220659963 1.9952982730247144
1463 -7.767932495195456 7.191354964221764 -3.5094216613327305
1036 1.4164327820381206 0.3102030180658621 0.08568434669130323
1779 -0.15206329845099137 1.5353620679567945 -3.279350106157599
1154 -2.5740707559714266 2.605912243487994 -0.13036807316640742
1821 -3.9092220813610545 -0.8055594676200287 -2.236832766548482
241 -0.5548330632319733 -0.5732894400792209 2.446648020842301
196 -1.186284193343224 2.5834425555319274 3.626996969534318
861 2.0981663574425005 -0.2823532542259722 -0.8322111330508783
1643 -1.3110841854120392 4.680647293297571 0.6697064990915776
875 4.641797593020238 1.8977840620244864 3.670972111242672
302 4.625546505758255 -2.3970163927564156 -4.102021001703701
218 1.0795551533961822 -0.875648827669523 -4.11608608096846
1660 0.09088458734826245 0.7219043816920521 -0.6549222045425042
1775 4.730068948047632 8.831324519813677 -4.646873794610214
1577 -1.2649716369473345 0.2022155508468932 2.3811463512182183
1583 -4.616442575256998 3.3620483360196514 4.458741490469131
93 5.699952942367738 -2.3362550025166327 -1.3788440249967568
563 0.7096083722274331 -3.6144276953582914 -5.884305982848969
501 5.159284848748315 4.337944863576726 2.9716818362363715
1495 3.5949224570440386 -4.958903125685583 -6.074829712650946
1557 -4.338604189613557 1.7072147561492022 2.043098758174943
1032 -1.8399209541199222 -0.46718900833505744 3.795122613742674
608 -6.171111936348342 0.6938472009635114 -1.4974767224642302
71 -3.120931313809508 3.654331059343335 -0.07694549107092602
1245 -8.070140451822535 -1.2843745365922543 -8.909140519352414
1588 2.758763247994966 -1.7216839448882024 -4.301267263770561
772 1.1815740820149105 1.4891835179954327 -3.914159653103733
1129 3.954992579485945 -2.600103179106515 0.5534378569273187
1750 6.057783737568927 3.1311943925528047 0.9369374260666444
122 -3.5960693928849508 3.402113310068909 3.0627335310788153
168 0.4714726284305329 -3.017602575886848 -8.490615025994629
1109 3.2026747200922654 4.489885103862581 -1.3596999444178397
1581 -6.246353229487845 2.20717731594344 1.5505602244386643
1201 1.906536075976417 -3.6742767455538297 1.136791008568251
1855 1.5674332711927346 -1.8896445359187861 -7.853742313077493
1586 -1.9348378256620677 1.377026637428656 3.3044411566147525
1741 4.11952366908337 2.3602532503743063 3.208142604560318
2050 0.3467944072362009 2.396340168990511 0.8783966516514997
740 -3.1504765403884205 -0.48787829822294665 -3.162989145152443
1096 -0.6965724290837111 -4.118740088122559 -0.059272917948739276
1593 -1.1665794955119586 -2.914462087971874 0.6816511152184063
137 0.8440138163591023 3.048452199999696 0.8431610409768069
854 -2.517402216899236 2.289442981758739 -7.934028110946949
610 2.496173741535742 -1.704303459273698 0.03653050489257599
524 0.6550166079278074 -6.70755139254806 4.71606063386278
1438 1.2298077958413363 3.6584113994227563 4.626152463103292
1900 -5.075674733987301 -2.2985724397777365 -0.2212798785440708
1194 -2.3030730351065025 -5.5414753993832875 0.765555617520799
1955 -4.455143932961706 7.104297012587449 10.998274277761
1957 -2.9755055913800685 0.4955670353943204 0.9763785433654907
1747 -10.554734797553854 6.100652223665224 2.422845370396865
72 0.8093460057090338 4.234138149558586 -8.976410194493106
867 -0.445657403644944 -3.0706025864422863 3.2237971775462912
1327 1.521678431005573 7.854626213973361 -2.534831704084297
1738 2.096982941129907 -3.439754370784934 -1.9512369989129443
1801 6.87436795967708 -4.340672899107764 -6.459562049576407
1086 -2.1931021281232113 7.949356201346507 2.424677201260963
1680 3.0685204857381825 -3.3754300799059958 -6.259221763237585
626 -2.5125459496940867 2.3651586821967916 1.2830512610869544
1357 -4.644049025520752 -0.20553197153326497 3.559386031635388
455 -3.048916626818066 -2.2481612566534457 7.470362115534546
1255 0.6830075657754503 4.118667088404819 3.563629036489298
2021 -2.621979157463551 1.1516199560238096 -0.4626327149580524
1857 -6.324720806366911 -3.8660151020080726 -2.7870114886661925
7 -2.3242670761751967 1.5933396423070045 1.4976029320101276
1901 -3.604419608776687 7.598298370716973 1.9515068434991631
547 -5.817562175806416 1.7399389875058933 -2.2934493373375555
420 0.37426781194832276 2.356174975433497 0.1111736984330507
868 1.3445783878056197 -0.8577422311562926 2.945948882274803
233 6.426697777751043 5.344819366140458 -4.495368945870592
1917 3.6250765893740726 -3.766284557218449 -1.5482846229612968
1945 -6.61067515794406 3.685647072147631 -2.595856758150793
593 -2.4857292805519426 3.980014381396747 1.1463038116780795
1639 0.7479727863829709 0.8009073122929303 0.10290033404230899
1753 -4.295643846550581 -3.041195022756012 0.3179870029855049
1517 -0.3697678299634002 2.2264787831761566 -5.003217652020387
1335 -1.5600159011816555 2.718631771743403 -0.40455325053473795
1563 -0.23802807948627683 -0.40974745663612205 -2.8194593579270677
1560 1.9363527579041182 -4.369893890659161 -11.479476990784661
1620 -7.903754961752714 -0.46621248668403914 -0.29394693083541784
197 -3.2878204675211338 -1.2787125291815484 2.467488234868659
1874 -1.448338857748571 0.9540725678215312 2.9988718398111396
246 9.103081462266877 3.021442869347021 -1.5390665154072534
25 -0.5745006004408266 -2.092717066578935 -0.6855727590971522
837 -5.315067824873949 -7.089920576409408 4.68114642325302
2064 -1.2657018990604316 5.474352107812291 -1.0818841769051717
1181 0.1065070446887076 -5.744896185829 -3.8033222224179553
513 2.9966318740274818 -7.175850433861281 -5.661121614725024
1652 2.5542938266522333 0.6543217522631977 -5.8500022937396565
702 4.179682142439892 3.0977855943977777 -6.9326389323428455
1195 -0.8768214254309411 -6.546912615712572 -4.197362675765462
309 3.9058316280772614 -3.7745477441726734 -0.9760868273821284
1419 2.4267036671916404 4.069203142042554 0.42401907388832133
172 -0.018503130701980907 4.051457282590741 3.1859174382839925
2047 -1.5324708545360526 -2.3195138444084957 0.8863164591041541
1303 -2.0386553739936772 -0.2666415089827322 6.137202870688465
1869 -0.7210852174667023 8.345291274669513 4.300628203728495
495 1.6011228616284119 -1.1606596454523377 -5.217386612575592
1614 -5.908866088432933 -0.8919814403423987 -2.536370748151921
1069 0.5022202997215817 -1.2344745201485325 -0.21701838231802387
751 -0.9243547553443235 2.686813324901836 -5.804283938324767
354 -0.697510603409437 3.0194047968673723 4.406608260812859
1298 1.5037154865221654 1.8407005649708004 -2.9523037593349537
1822 -9.728624688419032 1.6142204774210147 -0.103631074467105
39 4.636919668667699 -0.32191950746516007 1.5934874393708696
2112 -1.0136339983647122 -5.1532794798703305 2.336445389046638
1776 2.304318421825761 -2.5847454973799864 3.6642568440515313
303 0.17422718635671045 0.23129971519542752 -1.482197914015471
1087 1.3080219269304407 0.25139271406527214 1.7550221860745097
726 5.421384323169385 -6.216495400339809 -3.403107839378832
1066 -7.95753967361392 -1.858306770685851 3.9681130732345546
1883 -2.235487485103203 -0.021774584825370282 1.8057652766186003
1894 -0.4232194178687257 0.4289735017007505 -5.888960701170043
372 3.8507486501751997 -4.8470145150946635 3.564009463369024
1947 0.4355922127301367 2.42926816155642 3.6826530890013878
1879 -2.593449175055178 2.725250271000468 0.7780439514456592
947 2.713302553569654 -5.212751276948428 0.131427163280573
297 -1.7685429097632617 2.157121635949642 3.466442417520195
1226 -3.3368232651884386 -1.404798755152608 1.6905107107902009
689 -6.98747543158004 -0.9889307812438649 -0.46212000899929184
87 -0.9650535179572668 -2.360084434135594 3.58948336204545
1507 3.565073611004814 1.7983213944013534 -9.12901788252361
946 3.1217191503761246 0.6007571319386513 3.1419688026187145
1993 -0.5768407439046326 -2.0674178308715505 -1.5970378569171044
979 -0.8492962168128989 4.030153879379506 -3.4975108812178477
366 4.4250899137644915 2.015244913920316 2.8780020466187337
842 0.17863259388774042 3.31696582564433 -1.050814580004267
1997 -3.5880574313460434 -1.3279916729324555 -3.6480735192811835
115 -3.77214837309453 -1.9393855861877303 -2.56841578724903
543 2.041683140192176 1.6574534064299602 -4.346983702165518
514 2.8882509692334293 2.4404184684610772 -1.9407528740012938
254 0.30647775239102854 -0.845765961657619 1.7908399560782993
178 -6.27334238034135 -0.033766063121891676 -0.5172820745019977
991 2.3409395006281812 -2.559599609711546 0.013211757671276279
2143 -1.5885271727567247 -8.056815223609572 1.1949039882261052
1890 0.14356534456982803 1.3829272656359257 4.327261438811775
1336 -3.0449542153844456 6.046050230696187 -0.9139686422647867
1904 -2.851960614769835 0.8121058930059128 -2.667965790434787
796 -2.5261161985134373 0.9363029755879139 4.301278261720341
1724 2.056825798428706 -1.6938840392386827 0.35886431070761765
879 1.5591029445701294 0.5768819317785886 3.979061218682726
2077 2.596184605780939 0.019205580744368008 -2.9546185571215995
1920 0.6075093888340588 -0.17306579658276994 -2.7405783502532977
1402 3.223493269113557 2.1378726073540064 0.5796922931050315
1810 -0.9427041602628297 -8.094145271721079 -6.012228403586222
1814 -2.034162960491886 -2.0824272026053454 -2.19079319407089
2084 4.929118843852836 -0.9445710846554696 -2.9063287372276894
1566 -6.089626549475327 1.2538773378292918 -8.992719183870651
325 -0.4669892745309871 -0.9587481456948764 2.183462131205579
2123 0.7780563668901802 -2.0309351621229212 -1.4195921661318536
948 0.7509954583540401 -2.424933610994437 -2.919919348789171
662 -0.9473418586606114 -6.739915930055175 -1.302970743903156
1862 -1.3822968210082522 5.2576142988559615 0.09403845872660398
1930 -7.192721845543146 -5.3592036819018585 7.5115268337877525
1570 7.8046101065143825 -0.5848531962235582 2.5091852535600534
534 5.521758615689452 1.0559451282624222 -0.2612219173494419
2027 2.4007777006115787 -3.3635197416416256 2.739596359236892
422 -1.3967270570260863 2.920928428410643 0.5043823447705467
1281 -0.22671033684017403 -1.0805117676787992 -3.125094817171728
32 6.666303299850821 -5.142062057838816 -0.9012696157376502
1853 0.5876321780556115 -2.2725560221109578 0.1420313736534206
1306 1.3683244054271517 -0.7566501028144901 0.47603143379584323
220 -0.3363893400552492 -1.957712560328353 -0.8162379106938833
1513 -2.9085216841041133 -2.2179980959407866 5.343692514604474
326 5.077670153340333 1.3668431064109103 4.12394945502422
1072 -0.6258646311163822 -0.7845300204786294 -2.075185378752152
526 4.202790239491056 1.2450862981577697 9.008333573348624
2110 -0.46044031221479087 -2.363164747475618 2.1462393957032946
1428 2.935773691167321 -0.04121362164932147 -0.780717685620052
2056 -0.8833963156298275 -3.268318260136059 -1.2253718215905975
1145 1.1033649007532713 2.9272973815601446 -1.700244407405609
851 3.7283623099579764 1.2300747777226804 3.189496017071376
320 -4.093434220711193 -1.5104882215558615 -4.041075769222958
2150 3.186079958486542 2.912175760943948 0.4312837066358169
1171 -6.472800039697024 -2.532884776725391 6.66849012244658
2120 2.230371483194584 1.0456995476673503 2.3065367042311555
1605 0.8061878323626227 -6.190462172386225 1.9703494320276334
1397 0.06250716008195531 3.4297482617179074 2.770522492614256
1598 1.100573191682627 -2.2743822014689723 -2.359693940952868
35 2.766248717394362 4.927676070560859 2.165443933869682
127 4.946957309085126 2.9212543589847715 1.7278210961595657
1466 2.3704547276854537 4.761049810429928 0.8301123012405379
1362 3.9432571745988523 1.2131318152478132 -3.77019735885539
2118 4.727876764957495 0.9580509546807182 -1.7137916237289315
312 -7.496957951902401 -1.0823755224043472 -0.14311550597023037
1202 0.7101284874858105 -0.36720471919748815 -3.4844488512967047
1951 3.4521332713936776 3.768034209449457 -1.153249466129623
704 -2.7887943684897563 0.3028304043983772 -2.9703145196644862
2149 -3.718468432735559 -1.1206355913250894 -0.4292905339645509
264 2.611204022241799 -3.4863169262366016 4.368705585903158
793 0.7158496082741433 -1.2752383662437519 -6.913502520623513
1211 -1.0952141892355256 -0.47865223421479064 -4.553564635337684
1528 -5.146460898607834 -2.789966688903259 -0.9481273125836708
683 2.3978499374347964 -6.7348883935716755 -7.353920239205372
1268 -2.1303797909130546 5.914860669566942 7.5856181761259505
1909 6.136442519820752 5.983205756837882 -1.7851526215989135
2060 1.5759666629174685 2.12123331071802 -4.293961773648735
810 2.5795513159457975 8.934893183987935 1.0952308965983562
110 3.941983400683778 0.7660247730102328 -6.196844113189787
677 8.902910322428086 2.6988503019223775 -3.565992716457054
754 3.5893046455159308 -6.11388926385021 -1.8833937317021139
411 2.2870014549980424 -2.478774448398397 -0.701170463240249
2132 -2.8667723982839792 -0.5862364991807927 7.577018993420736
1332 0.6999735962985999 0.2061274815841628 5.55785487608412
659 0.9809528821343877 -7.45802433299185 0.3291496096461271
1908 -0.3377594648147669 4.1916149279788115 -6.629301492023178
409 -2.6598006551816136 -1.9457624666078863 -0.3302560504418212
736 -4.458607829278221 5.150838021384866 0.16225979851842823
1844 -1.7120586263129927 2.031220465556597 2.6908379187347076
224 -4.0497111056286315 -0.031124617385153246 -1.9188960672161093
1469 3.9226499113897475 2.472584233538223 0.764880297850765
335 6.352459486736942 0.46969020914576204 -0.18165614611536313
1885 -3.2193132633750885 -2.374739890592759 1.4645667759186305
768 -1.1074349440733724 -8.102542200011879 3.0576349447053226
2074 5.712121339946256 -0.5061504666460258 0.5096322518032681
472 3.2980646246340153 0.07230677553090209 -1.9010752575777867
1385 0.9849303626965719 -6.704958164201192 -9.071110300242646
1403 -1.6376255137643034 5.010265935156253 -0.8704469162286366
338 0.7654728105661974 -0.3232802613898676 0.6827116845638493
261 2.3414623813227586 -0.8285660224484298 -3.0475057702887773
408 3.2681651889377097 -5.252487952887154 0.6024009441921586
1683 2.0745355265200973 2.171873294034596 5.898472940792378
258 -5.196698589939881 3.512809921161128 4.6114801058797745
1235 3.4948095351932107 1.1359438371604647 -2.7087484180443133
41 2.1949710179379758 0.5165778150298742 2.9274862586704513
1734 -0.4226371426879624 2.7340858705992153 2.856428786414288
757 2.0250212000603156 2.031552334460741 0.5406244068258019
332 1.0258675393480599 1.3407118497880124 2.2030772361308575
415 0.3937084503303682 -2.1640956804674447 -2.86442471798381
365 -3.572672896925044 -1.030668299199072 -7.661856052791271
38 0.4051200303833207 -1.4830382071750725 -0.5047515631206133
1527 2.0071313435726754 -2.633215711234207 -4.058748760906485
1953 1.7711889251497681 -6.631790024820852 8.885579261438227
1452 5.283011123580103 5.967613836418155 -2.4429777642129826
1214 -4.573181535042659 -3.3030379219103647 -0.08490785187393056
1646 3.582275882617695 3.9683452683484988 -8.011970392854115
1889 -2.8481175695455363 5.315254127595883 2.411566427529668
1964 5.689948681273717 -3.660795247095218 -2.5778447125793726
442 -1.432670783222181 -7.155778815905899 1.609146513548666
360 -1.6934518667268472 1.1606194585832386 1.3733381156596554
2119 -0.9796970825348507 -0.46026109936918425 -1.7873796653097216
292 5.855507182454764 1.4937869575463514 5.910417848741019
1016 -3.754861612345842 0.3060608812268346 1.9930354903149619
1418 -0.13214242742811455 -5.063195844797321 4.723156830060314
1860 -5.132532686721107 -1.0817381194690572 -2.902615819102078
